*Heading
 mesh_data\cyl08_hexa_lin.inp
*NODE
1, 0.0025, 0, 0
2, 0.0025, 0, 0.05
3, 0.0023776412907379, 0.00077254248593737, 0
4, 0.0020225424859374, 0.0014694631307312, 0
5, 0.0014694631307312, 0.0020225424859374, 0
6, 0.00077254248593737, 0.0023776412907379, 0
7, 1.8184103311655e-18, 0.0025, 0
8, -0.00077254248593737, 0.0023776412907379, 0
9, -0.0014694631307312, 0.0020225424859374, 0
10, -0.0020225424859374, 0.0014694631307312, 0
11, -0.0023776412907379, 0.00077254248593737, 0
12, -0.0025, 4.7470436869562e-18, 0
13, -0.0023776412907379, -0.00077254248593736, 0
14, -0.0020225424859374, -0.0014694631307312, 0
15, -0.0014694631307312, -0.0020225424859374, 0
16, -0.00077254248593738, -0.0023776412907379, 0
17, -1.3781903678185e-17, -0.0025, 0
18, 0.00077254248593735, -0.0023776412907379, 0
19, 0.0014694631307312, -0.0020225424859374, 0
20, 0.0020225424859374, -0.0014694631307312, 0
21, 0.0023776412907379, -0.00077254248593737, 0
22, 0.0025, 0, 0.00080645161290323
23, 0.0025, 0, 0.0016129032258065
24, 0.0025, 0, 0.0024193548387097
25, 0.0025, 0, 0.0032258064516129
26, 0.0025, 0, 0.0040322580645161
27, 0.0025, 0, 0.0048387096774194
28, 0.0025, 0, 0.0056451612903226
29, 0.0025, 0, 0.0064516129032258
30, 0.0025, 0, 0.007258064516129
31, 0.0025, 0, 0.0080645161290323
32, 0.0025, 0, 0.0088709677419355
33, 0.0025, 0, 0.0096774193548387
34, 0.0025, 0, 0.010483870967742
35, 0.0025, 0, 0.011290322580645
36, 0.0025, 0, 0.012096774193548
37, 0.0025, 0, 0.012903225806452
38, 0.0025, 0, 0.013709677419355
39, 0.0025, 0, 0.014516129032258
40, 0.0025, 0, 0.015322580645161
41, 0.0025, 0, 0.016129032258065
42, 0.0025, 0, 0.016935483870968
43, 0.0025, 0, 0.017741935483871
44, 0.0025, 0, 0.018548387096774
45, 0.0025, 0, 0.019354838709677
46, 0.0025, 0, 0.020161290322581
47, 0.0025, 0, 0.020967741935484
48, 0.0025, 0, 0.021774193548387
49, 0.0025, 0, 0.02258064516129
50, 0.0025, 0, 0.023387096774194
51, 0.0025, 0, 0.024193548387097
52, 0.0025, 0, 0.025
53, 0.0025, 0, 0.025806451612903
54, 0.0025, 0, 0.026612903225806
55, 0.0025, 0, 0.02741935483871
56, 0.0025, 0, 0.028225806451613
57, 0.0025, 0, 0.029032258064516
58, 0.0025, 0, 0.029838709677419
59, 0.0025, 0, 0.030645161290323
60, 0.0025, 0, 0.031451612903226
61, 0.0025, 0, 0.032258064516129
62, 0.0025, 0, 0.033064516129032
63, 0.0025, 0, 0.033870967741935
64, 0.0025, 0, 0.034677419354839
65, 0.0025, 0, 0.035483870967742
66, 0.0025, 0, 0.036290322580645
67, 0.0025, 0, 0.037096774193548
68, 0.0025, 0, 0.037903225806452
69, 0.0025, 0, 0.038709677419355
70, 0.0025, 0, 0.039516129032258
71, 0.0025, 0, 0.040322580645161
72, 0.0025, 0, 0.041129032258065
73, 0.0025, 0, 0.041935483870968
74, 0.0025, 0, 0.042741935483871
75, 0.0025, 0, 0.043548387096774
76, 0.0025, 0, 0.044354838709677
77, 0.0025, 0, 0.045161290322581
78, 0.0025, 0, 0.045967741935484
79, 0.0025, 0, 0.046774193548387
80, 0.0025, 0, 0.04758064516129
81, 0.0025, 0, 0.048387096774194
82, 0.0025, 0, 0.049193548387097
83, 0.0023776412907379, 0.00077254248593737, 0.05
84, 0.0020225424859374, 0.0014694631307312, 0.05
85, 0.0014694631307312, 0.0020225424859374, 0.05
86, 0.00077254248593737, 0.0023776412907379, 0.05
87, 1.8184103311655e-18, 0.0025, 0.05
88, -0.00077254248593737, 0.0023776412907379, 0.05
89, -0.0014694631307312, 0.0020225424859374, 0.05
90, -0.0020225424859374, 0.0014694631307312, 0.05
91, -0.0023776412907379, 0.00077254248593737, 0.05
92, -0.0025, 4.7470436869562e-18, 0.05
93, -0.0023776412907379, -0.00077254248593736, 0.05
94, -0.0020225424859374, -0.0014694631307312, 0.05
95, -0.0014694631307312, -0.0020225424859374, 0.05
96, -0.00077254248593738, -0.0023776412907379, 0.05
97, -1.3781903678185e-17, -0.0025, 0.05
98, 0.00077254248593735, -0.0023776412907379, 0.05
99, 0.0014694631307312, -0.0020225424859374, 0.05
100, 0.0020225424859374, -0.0014694631307312, 0.05
101, 0.0023776412907379, -0.00077254248593737, 0.05
102, -0.00078719630170729, -0.00022810508102165, 0
103, 0.0011293716550545, 0.00037130670895118, 0
104, 0.00046372837184537, -0.00091724602738991, 0
105, -0.00022864277231968, 0.00094426523712017, 0
106, -0.00079636200015711, -0.0012297213321081, 0
107, -0.00016339963695251, -0.00045458885048028, 0
108, -0.00022905835265769, -0.0011572696605431, 0
109, -0.00086088434945381, -0.00074044162783251, 0
110, -0.00040070467279907, -0.00078366570214525, 0
111, 0.0017632655597215, 0.00013831368488945, 0
112, 0.0014977439024983, 0.00092384917526498, 0
113, 0.0018800328381069, 0.00061199986993123, 0
114, -0.0013780795820541, -0.0012932234757415, 0
115, -0.00073110233991449, -0.0017544299707573, 0
116, -0.0011942088463861, -0.0016906321797683, 0
117, 0.00058736777354453, -0.0016718933763205, 0
118, 0.0012924565922348, -0.0011381735269053, 0
119, 0.0011060596417068, -0.0016018640324138, 0
120, -0.0015515095574739, -9.9112575456709e-05, 0
121, -0.0010515175331228, 0.0011919622665488, 0
122, -0.00056780710558148, 0.00033230596524846, 0
123, -0.0013867189547353, 0.00054920584036524, 0
124, 0.00048849174837993, 0.00066548813235549, 0
125, 0.00022420628866771, 0.0016043471649007, 0
126, 0.00092031942355379, 0.0012990597720882, 0
127, 0.00082604997442798, -0.00022879666348586, 0
128, 0.0015512581011685, -0.00050116931522006, 0
129, 0.00014423611252538, 6.7003782260672e-05, 0
130, -0.0015365137626698, -0.0007271447603704, 0
131, -8.8811030563971e-05, -0.0017534794812777, 0
132, -0.00057041622783923, 0.0018169104355305, 0
133, 0.0023776412907379, 0.00077254248593737, 0.00080645161290323
134, 0.0023776412907379, 0.00077254248593737, 0.0016129032258065
135, 0.0023776412907379, 0.00077254248593737, 0.0024193548387097
136, 0.0023776412907379, 0.00077254248593737, 0.0032258064516129
137, 0.0023776412907379, 0.00077254248593737, 0.0040322580645161
138, 0.0023776412907379, 0.00077254248593737, 0.0048387096774194
139, 0.0023776412907379, 0.00077254248593737, 0.0056451612903226
140, 0.0023776412907379, 0.00077254248593737, 0.0064516129032258
141, 0.0023776412907379, 0.00077254248593737, 0.007258064516129
142, 0.0023776412907379, 0.00077254248593737, 0.0080645161290323
143, 0.0023776412907379, 0.00077254248593737, 0.0088709677419355
144, 0.0023776412907379, 0.00077254248593737, 0.0096774193548387
145, 0.0023776412907379, 0.00077254248593737, 0.010483870967742
146, 0.0023776412907379, 0.00077254248593737, 0.011290322580645
147, 0.0023776412907379, 0.00077254248593737, 0.012096774193548
148, 0.0023776412907379, 0.00077254248593737, 0.012903225806452
149, 0.0023776412907379, 0.00077254248593737, 0.013709677419355
150, 0.0023776412907379, 0.00077254248593737, 0.014516129032258
151, 0.0023776412907379, 0.00077254248593737, 0.015322580645161
152, 0.0023776412907379, 0.00077254248593737, 0.016129032258065
153, 0.0023776412907379, 0.00077254248593737, 0.016935483870968
154, 0.0023776412907379, 0.00077254248593737, 0.017741935483871
155, 0.0023776412907379, 0.00077254248593737, 0.018548387096774
156, 0.0023776412907379, 0.00077254248593737, 0.019354838709677
157, 0.0023776412907379, 0.00077254248593737, 0.020161290322581
158, 0.0023776412907379, 0.00077254248593737, 0.020967741935484
159, 0.0023776412907379, 0.00077254248593737, 0.021774193548387
160, 0.0023776412907379, 0.00077254248593737, 0.02258064516129
161, 0.0023776412907379, 0.00077254248593737, 0.023387096774194
162, 0.0023776412907379, 0.00077254248593737, 0.024193548387097
163, 0.0023776412907379, 0.00077254248593737, 0.025
164, 0.0023776412907379, 0.00077254248593737, 0.025806451612903
165, 0.0023776412907379, 0.00077254248593737, 0.026612903225806
166, 0.0023776412907379, 0.00077254248593737, 0.02741935483871
167, 0.0023776412907379, 0.00077254248593737, 0.028225806451613
168, 0.0023776412907379, 0.00077254248593737, 0.029032258064516
169, 0.0023776412907379, 0.00077254248593737, 0.029838709677419
170, 0.0023776412907379, 0.00077254248593737, 0.030645161290323
171, 0.0023776412907379, 0.00077254248593737, 0.031451612903226
172, 0.0023776412907379, 0.00077254248593737, 0.032258064516129
173, 0.0023776412907379, 0.00077254248593737, 0.033064516129032
174, 0.0023776412907379, 0.00077254248593737, 0.033870967741935
175, 0.0023776412907379, 0.00077254248593737, 0.034677419354839
176, 0.0023776412907379, 0.00077254248593737, 0.035483870967742
177, 0.0023776412907379, 0.00077254248593737, 0.036290322580645
178, 0.0023776412907379, 0.00077254248593737, 0.037096774193548
179, 0.0023776412907379, 0.00077254248593737, 0.037903225806452
180, 0.0023776412907379, 0.00077254248593737, 0.038709677419355
181, 0.0023776412907379, 0.00077254248593737, 0.039516129032258
182, 0.0023776412907379, 0.00077254248593737, 0.040322580645161
183, 0.0023776412907379, 0.00077254248593737, 0.041129032258065
184, 0.0023776412907379, 0.00077254248593737, 0.041935483870968
185, 0.0023776412907379, 0.00077254248593737, 0.042741935483871
186, 0.0023776412907379, 0.00077254248593737, 0.043548387096774
187, 0.0023776412907379, 0.00077254248593737, 0.044354838709677
188, 0.0023776412907379, 0.00077254248593737, 0.045161290322581
189, 0.0023776412907379, 0.00077254248593737, 0.045967741935484
190, 0.0023776412907379, 0.00077254248593737, 0.046774193548387
191, 0.0023776412907379, 0.00077254248593737, 0.04758064516129
192, 0.0023776412907379, 0.00077254248593737, 0.048387096774194
193, 0.0023776412907379, 0.00077254248593737, 0.049193548387097
194, 0.0020225424859374, 0.0014694631307312, 0.00080645161290323
195, 0.0020225424859374, 0.0014694631307312, 0.0016129032258065
196, 0.0020225424859374, 0.0014694631307312, 0.0024193548387097
197, 0.0020225424859374, 0.0014694631307312, 0.0032258064516129
198, 0.0020225424859374, 0.0014694631307312, 0.0040322580645161
199, 0.0020225424859374, 0.0014694631307312, 0.0048387096774194
200, 0.0020225424859374, 0.0014694631307312, 0.0056451612903226
201, 0.0020225424859374, 0.0014694631307312, 0.0064516129032258
202, 0.0020225424859374, 0.0014694631307312, 0.007258064516129
203, 0.0020225424859374, 0.0014694631307312, 0.0080645161290323
204, 0.0020225424859374, 0.0014694631307312, 0.0088709677419355
205, 0.0020225424859374, 0.0014694631307312, 0.0096774193548387
206, 0.0020225424859374, 0.0014694631307312, 0.010483870967742
207, 0.0020225424859374, 0.0014694631307312, 0.011290322580645
208, 0.0020225424859374, 0.0014694631307312, 0.012096774193548
209, 0.0020225424859374, 0.0014694631307312, 0.012903225806452
210, 0.0020225424859374, 0.0014694631307312, 0.013709677419355
211, 0.0020225424859374, 0.0014694631307312, 0.014516129032258
212, 0.0020225424859374, 0.0014694631307312, 0.015322580645161
213, 0.0020225424859374, 0.0014694631307312, 0.016129032258065
214, 0.0020225424859374, 0.0014694631307312, 0.016935483870968
215, 0.0020225424859374, 0.0014694631307312, 0.017741935483871
216, 0.0020225424859374, 0.0014694631307312, 0.018548387096774
217, 0.0020225424859374, 0.0014694631307312, 0.019354838709677
218, 0.0020225424859374, 0.0014694631307312, 0.020161290322581
219, 0.0020225424859374, 0.0014694631307312, 0.020967741935484
220, 0.0020225424859374, 0.0014694631307312, 0.021774193548387
221, 0.0020225424859374, 0.0014694631307312, 0.02258064516129
222, 0.0020225424859374, 0.0014694631307312, 0.023387096774194
223, 0.0020225424859374, 0.0014694631307312, 0.024193548387097
224, 0.0020225424859374, 0.0014694631307312, 0.025
225, 0.0020225424859374, 0.0014694631307312, 0.025806451612903
226, 0.0020225424859374, 0.0014694631307312, 0.026612903225806
227, 0.0020225424859374, 0.0014694631307312, 0.02741935483871
228, 0.0020225424859374, 0.0014694631307312, 0.028225806451613
229, 0.0020225424859374, 0.0014694631307312, 0.029032258064516
230, 0.0020225424859374, 0.0014694631307312, 0.029838709677419
231, 0.0020225424859374, 0.0014694631307312, 0.030645161290323
232, 0.0020225424859374, 0.0014694631307312, 0.031451612903226
233, 0.0020225424859374, 0.0014694631307312, 0.032258064516129
234, 0.0020225424859374, 0.0014694631307312, 0.033064516129032
235, 0.0020225424859374, 0.0014694631307312, 0.033870967741935
236, 0.0020225424859374, 0.0014694631307312, 0.034677419354839
237, 0.0020225424859374, 0.0014694631307312, 0.035483870967742
238, 0.0020225424859374, 0.0014694631307312, 0.036290322580645
239, 0.0020225424859374, 0.0014694631307312, 0.037096774193548
240, 0.0020225424859374, 0.0014694631307312, 0.037903225806452
241, 0.0020225424859374, 0.0014694631307312, 0.038709677419355
242, 0.0020225424859374, 0.0014694631307312, 0.039516129032258
243, 0.0020225424859374, 0.0014694631307312, 0.040322580645161
244, 0.0020225424859374, 0.0014694631307312, 0.041129032258065
245, 0.0020225424859374, 0.0014694631307312, 0.041935483870968
246, 0.0020225424859374, 0.0014694631307312, 0.042741935483871
247, 0.0020225424859374, 0.0014694631307312, 0.043548387096774
248, 0.0020225424859374, 0.0014694631307312, 0.044354838709677
249, 0.0020225424859374, 0.0014694631307312, 0.045161290322581
250, 0.0020225424859374, 0.0014694631307312, 0.045967741935484
251, 0.0020225424859374, 0.0014694631307312, 0.046774193548387
252, 0.0020225424859374, 0.0014694631307312, 0.04758064516129
253, 0.0020225424859374, 0.0014694631307312, 0.048387096774194
254, 0.0020225424859374, 0.0014694631307312, 0.049193548387097
255, 0.0014694631307312, 0.0020225424859374, 0.00080645161290323
256, 0.0014694631307312, 0.0020225424859374, 0.0016129032258065
257, 0.0014694631307312, 0.0020225424859374, 0.0024193548387097
258, 0.0014694631307312, 0.0020225424859374, 0.0032258064516129
259, 0.0014694631307312, 0.0020225424859374, 0.0040322580645161
260, 0.0014694631307312, 0.0020225424859374, 0.0048387096774194
261, 0.0014694631307312, 0.0020225424859374, 0.0056451612903226
262, 0.0014694631307312, 0.0020225424859374, 0.0064516129032258
263, 0.0014694631307312, 0.0020225424859374, 0.007258064516129
264, 0.0014694631307312, 0.0020225424859374, 0.0080645161290323
265, 0.0014694631307312, 0.0020225424859374, 0.0088709677419355
266, 0.0014694631307312, 0.0020225424859374, 0.0096774193548387
267, 0.0014694631307312, 0.0020225424859374, 0.010483870967742
268, 0.0014694631307312, 0.0020225424859374, 0.011290322580645
269, 0.0014694631307312, 0.0020225424859374, 0.012096774193548
270, 0.0014694631307312, 0.0020225424859374, 0.012903225806452
271, 0.0014694631307312, 0.0020225424859374, 0.013709677419355
272, 0.0014694631307312, 0.0020225424859374, 0.014516129032258
273, 0.0014694631307312, 0.0020225424859374, 0.015322580645161
274, 0.0014694631307312, 0.0020225424859374, 0.016129032258065
275, 0.0014694631307312, 0.0020225424859374, 0.016935483870968
276, 0.0014694631307312, 0.0020225424859374, 0.017741935483871
277, 0.0014694631307312, 0.0020225424859374, 0.018548387096774
278, 0.0014694631307312, 0.0020225424859374, 0.019354838709677
279, 0.0014694631307312, 0.0020225424859374, 0.020161290322581
280, 0.0014694631307312, 0.0020225424859374, 0.020967741935484
281, 0.0014694631307312, 0.0020225424859374, 0.021774193548387
282, 0.0014694631307312, 0.0020225424859374, 0.02258064516129
283, 0.0014694631307312, 0.0020225424859374, 0.023387096774194
284, 0.0014694631307312, 0.0020225424859374, 0.024193548387097
285, 0.0014694631307312, 0.0020225424859374, 0.025
286, 0.0014694631307312, 0.0020225424859374, 0.025806451612903
287, 0.0014694631307312, 0.0020225424859374, 0.026612903225806
288, 0.0014694631307312, 0.0020225424859374, 0.02741935483871
289, 0.0014694631307312, 0.0020225424859374, 0.028225806451613
290, 0.0014694631307312, 0.0020225424859374, 0.029032258064516
291, 0.0014694631307312, 0.0020225424859374, 0.029838709677419
292, 0.0014694631307312, 0.0020225424859374, 0.030645161290323
293, 0.0014694631307312, 0.0020225424859374, 0.031451612903226
294, 0.0014694631307312, 0.0020225424859374, 0.032258064516129
295, 0.0014694631307312, 0.0020225424859374, 0.033064516129032
296, 0.0014694631307312, 0.0020225424859374, 0.033870967741935
297, 0.0014694631307312, 0.0020225424859374, 0.034677419354839
298, 0.0014694631307312, 0.0020225424859374, 0.035483870967742
299, 0.0014694631307312, 0.0020225424859374, 0.036290322580645
300, 0.0014694631307312, 0.0020225424859374, 0.037096774193548
301, 0.0014694631307312, 0.0020225424859374, 0.037903225806452
302, 0.0014694631307312, 0.0020225424859374, 0.038709677419355
303, 0.0014694631307312, 0.0020225424859374, 0.039516129032258
304, 0.0014694631307312, 0.0020225424859374, 0.040322580645161
305, 0.0014694631307312, 0.0020225424859374, 0.041129032258065
306, 0.0014694631307312, 0.0020225424859374, 0.041935483870968
307, 0.0014694631307312, 0.0020225424859374, 0.042741935483871
308, 0.0014694631307312, 0.0020225424859374, 0.043548387096774
309, 0.0014694631307312, 0.0020225424859374, 0.044354838709677
310, 0.0014694631307312, 0.0020225424859374, 0.045161290322581
311, 0.0014694631307312, 0.0020225424859374, 0.045967741935484
312, 0.0014694631307312, 0.0020225424859374, 0.046774193548387
313, 0.0014694631307312, 0.0020225424859374, 0.04758064516129
314, 0.0014694631307312, 0.0020225424859374, 0.048387096774194
315, 0.0014694631307312, 0.0020225424859374, 0.049193548387097
316, 0.00077254248593737, 0.0023776412907379, 0.00080645161290323
317, 0.00077254248593737, 0.0023776412907379, 0.0016129032258065
318, 0.00077254248593737, 0.0023776412907379, 0.0024193548387097
319, 0.00077254248593737, 0.0023776412907379, 0.0032258064516129
320, 0.00077254248593737, 0.0023776412907379, 0.0040322580645161
321, 0.00077254248593737, 0.0023776412907379, 0.0048387096774194
322, 0.00077254248593737, 0.0023776412907379, 0.0056451612903226
323, 0.00077254248593737, 0.0023776412907379, 0.0064516129032258
324, 0.00077254248593737, 0.0023776412907379, 0.007258064516129
325, 0.00077254248593737, 0.0023776412907379, 0.0080645161290323
326, 0.00077254248593737, 0.0023776412907379, 0.0088709677419355
327, 0.00077254248593737, 0.0023776412907379, 0.0096774193548387
328, 0.00077254248593737, 0.0023776412907379, 0.010483870967742
329, 0.00077254248593737, 0.0023776412907379, 0.011290322580645
330, 0.00077254248593737, 0.0023776412907379, 0.012096774193548
331, 0.00077254248593737, 0.0023776412907379, 0.012903225806452
332, 0.00077254248593737, 0.0023776412907379, 0.013709677419355
333, 0.00077254248593737, 0.0023776412907379, 0.014516129032258
334, 0.00077254248593737, 0.0023776412907379, 0.015322580645161
335, 0.00077254248593737, 0.0023776412907379, 0.016129032258065
336, 0.00077254248593737, 0.0023776412907379, 0.016935483870968
337, 0.00077254248593737, 0.0023776412907379, 0.017741935483871
338, 0.00077254248593737, 0.0023776412907379, 0.018548387096774
339, 0.00077254248593737, 0.0023776412907379, 0.019354838709677
340, 0.00077254248593737, 0.0023776412907379, 0.020161290322581
341, 0.00077254248593737, 0.0023776412907379, 0.020967741935484
342, 0.00077254248593737, 0.0023776412907379, 0.021774193548387
343, 0.00077254248593737, 0.0023776412907379, 0.02258064516129
344, 0.00077254248593737, 0.0023776412907379, 0.023387096774194
345, 0.00077254248593737, 0.0023776412907379, 0.024193548387097
346, 0.00077254248593737, 0.0023776412907379, 0.025
347, 0.00077254248593737, 0.0023776412907379, 0.025806451612903
348, 0.00077254248593737, 0.0023776412907379, 0.026612903225806
349, 0.00077254248593737, 0.0023776412907379, 0.02741935483871
350, 0.00077254248593737, 0.0023776412907379, 0.028225806451613
351, 0.00077254248593737, 0.0023776412907379, 0.029032258064516
352, 0.00077254248593737, 0.0023776412907379, 0.029838709677419
353, 0.00077254248593737, 0.0023776412907379, 0.030645161290323
354, 0.00077254248593737, 0.0023776412907379, 0.031451612903226
355, 0.00077254248593737, 0.0023776412907379, 0.032258064516129
356, 0.00077254248593737, 0.0023776412907379, 0.033064516129032
357, 0.00077254248593737, 0.0023776412907379, 0.033870967741935
358, 0.00077254248593737, 0.0023776412907379, 0.034677419354839
359, 0.00077254248593737, 0.0023776412907379, 0.035483870967742
360, 0.00077254248593737, 0.0023776412907379, 0.036290322580645
361, 0.00077254248593737, 0.0023776412907379, 0.037096774193548
362, 0.00077254248593737, 0.0023776412907379, 0.037903225806452
363, 0.00077254248593737, 0.0023776412907379, 0.038709677419355
364, 0.00077254248593737, 0.0023776412907379, 0.039516129032258
365, 0.00077254248593737, 0.0023776412907379, 0.040322580645161
366, 0.00077254248593737, 0.0023776412907379, 0.041129032258065
367, 0.00077254248593737, 0.0023776412907379, 0.041935483870968
368, 0.00077254248593737, 0.0023776412907379, 0.042741935483871
369, 0.00077254248593737, 0.0023776412907379, 0.043548387096774
370, 0.00077254248593737, 0.0023776412907379, 0.044354838709677
371, 0.00077254248593737, 0.0023776412907379, 0.045161290322581
372, 0.00077254248593737, 0.0023776412907379, 0.045967741935484
373, 0.00077254248593737, 0.0023776412907379, 0.046774193548387
374, 0.00077254248593737, 0.0023776412907379, 0.04758064516129
375, 0.00077254248593737, 0.0023776412907379, 0.048387096774194
376, 0.00077254248593737, 0.0023776412907379, 0.049193548387097
377, 1.8184103311655e-18, 0.0025, 0.00080645161290323
378, 1.8184103311655e-18, 0.0025, 0.0016129032258065
379, 1.8184103311655e-18, 0.0025, 0.0024193548387097
380, 1.8184103311655e-18, 0.0025, 0.0032258064516129
381, 1.8184103311655e-18, 0.0025, 0.0040322580645161
382, 1.8184103311655e-18, 0.0025, 0.0048387096774194
383, 1.8184103311655e-18, 0.0025, 0.0056451612903226
384, 1.8184103311655e-18, 0.0025, 0.0064516129032258
385, 1.8184103311655e-18, 0.0025, 0.007258064516129
386, 1.8184103311655e-18, 0.0025, 0.0080645161290323
387, 1.8184103311655e-18, 0.0025, 0.0088709677419355
388, 1.8184103311655e-18, 0.0025, 0.0096774193548387
389, 1.8184103311655e-18, 0.0025, 0.010483870967742
390, 1.8184103311655e-18, 0.0025, 0.011290322580645
391, 1.8184103311655e-18, 0.0025, 0.012096774193548
392, 1.8184103311655e-18, 0.0025, 0.012903225806452
393, 1.8184103311655e-18, 0.0025, 0.013709677419355
394, 1.8184103311655e-18, 0.0025, 0.014516129032258
395, 1.8184103311655e-18, 0.0025, 0.015322580645161
396, 1.8184103311655e-18, 0.0025, 0.016129032258065
397, 1.8184103311655e-18, 0.0025, 0.016935483870968
398, 1.8184103311655e-18, 0.0025, 0.017741935483871
399, 1.8184103311655e-18, 0.0025, 0.018548387096774
400, 1.8184103311655e-18, 0.0025, 0.019354838709677
401, 1.8184103311655e-18, 0.0025, 0.020161290322581
402, 1.8184103311655e-18, 0.0025, 0.020967741935484
403, 1.8184103311655e-18, 0.0025, 0.021774193548387
404, 1.8184103311655e-18, 0.0025, 0.02258064516129
405, 1.8184103311655e-18, 0.0025, 0.023387096774194
406, 1.8184103311655e-18, 0.0025, 0.024193548387097
407, 1.8184103311655e-18, 0.0025, 0.025
408, 1.8184103311655e-18, 0.0025, 0.025806451612903
409, 1.8184103311655e-18, 0.0025, 0.026612903225806
410, 1.8184103311655e-18, 0.0025, 0.02741935483871
411, 1.8184103311655e-18, 0.0025, 0.028225806451613
412, 1.8184103311655e-18, 0.0025, 0.029032258064516
413, 1.8184103311655e-18, 0.0025, 0.029838709677419
414, 1.8184103311655e-18, 0.0025, 0.030645161290323
415, 1.8184103311655e-18, 0.0025, 0.031451612903226
416, 1.8184103311655e-18, 0.0025, 0.032258064516129
417, 1.8184103311655e-18, 0.0025, 0.033064516129032
418, 1.8184103311655e-18, 0.0025, 0.033870967741935
419, 1.8184103311655e-18, 0.0025, 0.034677419354839
420, 1.8184103311655e-18, 0.0025, 0.035483870967742
421, 1.8184103311655e-18, 0.0025, 0.036290322580645
422, 1.8184103311655e-18, 0.0025, 0.037096774193548
423, 1.8184103311655e-18, 0.0025, 0.037903225806452
424, 1.8184103311655e-18, 0.0025, 0.038709677419355
425, 1.8184103311655e-18, 0.0025, 0.039516129032258
426, 1.8184103311655e-18, 0.0025, 0.040322580645161
427, 1.8184103311655e-18, 0.0025, 0.041129032258065
428, 1.8184103311655e-18, 0.0025, 0.041935483870968
429, 1.8184103311655e-18, 0.0025, 0.042741935483871
430, 1.8184103311655e-18, 0.0025, 0.043548387096774
431, 1.8184103311655e-18, 0.0025, 0.044354838709677
432, 1.8184103311655e-18, 0.0025, 0.045161290322581
433, 1.8184103311655e-18, 0.0025, 0.045967741935484
434, 1.8184103311655e-18, 0.0025, 0.046774193548387
435, 1.8184103311655e-18, 0.0025, 0.04758064516129
436, 1.8184103311655e-18, 0.0025, 0.048387096774194
437, 1.8184103311655e-18, 0.0025, 0.049193548387097
438, -0.00077254248593737, 0.0023776412907379, 0.00080645161290323
439, -0.00077254248593737, 0.0023776412907379, 0.0016129032258065
440, -0.00077254248593737, 0.0023776412907379, 0.0024193548387097
441, -0.00077254248593737, 0.0023776412907379, 0.0032258064516129
442, -0.00077254248593737, 0.0023776412907379, 0.0040322580645161
443, -0.00077254248593737, 0.0023776412907379, 0.0048387096774194
444, -0.00077254248593737, 0.0023776412907379, 0.0056451612903226
445, -0.00077254248593737, 0.0023776412907379, 0.0064516129032258
446, -0.00077254248593737, 0.0023776412907379, 0.007258064516129
447, -0.00077254248593737, 0.0023776412907379, 0.0080645161290323
448, -0.00077254248593737, 0.0023776412907379, 0.0088709677419355
449, -0.00077254248593737, 0.0023776412907379, 0.0096774193548387
450, -0.00077254248593737, 0.0023776412907379, 0.010483870967742
451, -0.00077254248593737, 0.0023776412907379, 0.011290322580645
452, -0.00077254248593737, 0.0023776412907379, 0.012096774193548
453, -0.00077254248593737, 0.0023776412907379, 0.012903225806452
454, -0.00077254248593737, 0.0023776412907379, 0.013709677419355
455, -0.00077254248593737, 0.0023776412907379, 0.014516129032258
456, -0.00077254248593737, 0.0023776412907379, 0.015322580645161
457, -0.00077254248593737, 0.0023776412907379, 0.016129032258065
458, -0.00077254248593737, 0.0023776412907379, 0.016935483870968
459, -0.00077254248593737, 0.0023776412907379, 0.017741935483871
460, -0.00077254248593737, 0.0023776412907379, 0.018548387096774
461, -0.00077254248593737, 0.0023776412907379, 0.019354838709677
462, -0.00077254248593737, 0.0023776412907379, 0.020161290322581
463, -0.00077254248593737, 0.0023776412907379, 0.020967741935484
464, -0.00077254248593737, 0.0023776412907379, 0.021774193548387
465, -0.00077254248593737, 0.0023776412907379, 0.02258064516129
466, -0.00077254248593737, 0.0023776412907379, 0.023387096774194
467, -0.00077254248593737, 0.0023776412907379, 0.024193548387097
468, -0.00077254248593737, 0.0023776412907379, 0.025
469, -0.00077254248593737, 0.0023776412907379, 0.025806451612903
470, -0.00077254248593737, 0.0023776412907379, 0.026612903225806
471, -0.00077254248593737, 0.0023776412907379, 0.02741935483871
472, -0.00077254248593737, 0.0023776412907379, 0.028225806451613
473, -0.00077254248593737, 0.0023776412907379, 0.029032258064516
474, -0.00077254248593737, 0.0023776412907379, 0.029838709677419
475, -0.00077254248593737, 0.0023776412907379, 0.030645161290323
476, -0.00077254248593737, 0.0023776412907379, 0.031451612903226
477, -0.00077254248593737, 0.0023776412907379, 0.032258064516129
478, -0.00077254248593737, 0.0023776412907379, 0.033064516129032
479, -0.00077254248593737, 0.0023776412907379, 0.033870967741935
480, -0.00077254248593737, 0.0023776412907379, 0.034677419354839
481, -0.00077254248593737, 0.0023776412907379, 0.035483870967742
482, -0.00077254248593737, 0.0023776412907379, 0.036290322580645
483, -0.00077254248593737, 0.0023776412907379, 0.037096774193548
484, -0.00077254248593737, 0.0023776412907379, 0.037903225806452
485, -0.00077254248593737, 0.0023776412907379, 0.038709677419355
486, -0.00077254248593737, 0.0023776412907379, 0.039516129032258
487, -0.00077254248593737, 0.0023776412907379, 0.040322580645161
488, -0.00077254248593737, 0.0023776412907379, 0.041129032258065
489, -0.00077254248593737, 0.0023776412907379, 0.041935483870968
490, -0.00077254248593737, 0.0023776412907379, 0.042741935483871
491, -0.00077254248593737, 0.0023776412907379, 0.043548387096774
492, -0.00077254248593737, 0.0023776412907379, 0.044354838709677
493, -0.00077254248593737, 0.0023776412907379, 0.045161290322581
494, -0.00077254248593737, 0.0023776412907379, 0.045967741935484
495, -0.00077254248593737, 0.0023776412907379, 0.046774193548387
496, -0.00077254248593737, 0.0023776412907379, 0.04758064516129
497, -0.00077254248593737, 0.0023776412907379, 0.048387096774194
498, -0.00077254248593737, 0.0023776412907379, 0.049193548387097
499, -0.0014694631307312, 0.0020225424859374, 0.00080645161290323
500, -0.0014694631307312, 0.0020225424859374, 0.0016129032258065
501, -0.0014694631307312, 0.0020225424859374, 0.0024193548387097
502, -0.0014694631307312, 0.0020225424859374, 0.0032258064516129
503, -0.0014694631307312, 0.0020225424859374, 0.0040322580645161
504, -0.0014694631307312, 0.0020225424859374, 0.0048387096774194
505, -0.0014694631307312, 0.0020225424859374, 0.0056451612903226
506, -0.0014694631307312, 0.0020225424859374, 0.0064516129032258
507, -0.0014694631307312, 0.0020225424859374, 0.007258064516129
508, -0.0014694631307312, 0.0020225424859374, 0.0080645161290323
509, -0.0014694631307312, 0.0020225424859374, 0.0088709677419355
510, -0.0014694631307312, 0.0020225424859374, 0.0096774193548387
511, -0.0014694631307312, 0.0020225424859374, 0.010483870967742
512, -0.0014694631307312, 0.0020225424859374, 0.011290322580645
513, -0.0014694631307312, 0.0020225424859374, 0.012096774193548
514, -0.0014694631307312, 0.0020225424859374, 0.012903225806452
515, -0.0014694631307312, 0.0020225424859374, 0.013709677419355
516, -0.0014694631307312, 0.0020225424859374, 0.014516129032258
517, -0.0014694631307312, 0.0020225424859374, 0.015322580645161
518, -0.0014694631307312, 0.0020225424859374, 0.016129032258065
519, -0.0014694631307312, 0.0020225424859374, 0.016935483870968
520, -0.0014694631307312, 0.0020225424859374, 0.017741935483871
521, -0.0014694631307312, 0.0020225424859374, 0.018548387096774
522, -0.0014694631307312, 0.0020225424859374, 0.019354838709677
523, -0.0014694631307312, 0.0020225424859374, 0.020161290322581
524, -0.0014694631307312, 0.0020225424859374, 0.020967741935484
525, -0.0014694631307312, 0.0020225424859374, 0.021774193548387
526, -0.0014694631307312, 0.0020225424859374, 0.02258064516129
527, -0.0014694631307312, 0.0020225424859374, 0.023387096774194
528, -0.0014694631307312, 0.0020225424859374, 0.024193548387097
529, -0.0014694631307312, 0.0020225424859374, 0.025
530, -0.0014694631307312, 0.0020225424859374, 0.025806451612903
531, -0.0014694631307312, 0.0020225424859374, 0.026612903225806
532, -0.0014694631307312, 0.0020225424859374, 0.02741935483871
533, -0.0014694631307312, 0.0020225424859374, 0.028225806451613
534, -0.0014694631307312, 0.0020225424859374, 0.029032258064516
535, -0.0014694631307312, 0.0020225424859374, 0.029838709677419
536, -0.0014694631307312, 0.0020225424859374, 0.030645161290323
537, -0.0014694631307312, 0.0020225424859374, 0.031451612903226
538, -0.0014694631307312, 0.0020225424859374, 0.032258064516129
539, -0.0014694631307312, 0.0020225424859374, 0.033064516129032
540, -0.0014694631307312, 0.0020225424859374, 0.033870967741935
541, -0.0014694631307312, 0.0020225424859374, 0.034677419354839
542, -0.0014694631307312, 0.0020225424859374, 0.035483870967742
543, -0.0014694631307312, 0.0020225424859374, 0.036290322580645
544, -0.0014694631307312, 0.0020225424859374, 0.037096774193548
545, -0.0014694631307312, 0.0020225424859374, 0.037903225806452
546, -0.0014694631307312, 0.0020225424859374, 0.038709677419355
547, -0.0014694631307312, 0.0020225424859374, 0.039516129032258
548, -0.0014694631307312, 0.0020225424859374, 0.040322580645161
549, -0.0014694631307312, 0.0020225424859374, 0.041129032258065
550, -0.0014694631307312, 0.0020225424859374, 0.041935483870968
551, -0.0014694631307312, 0.0020225424859374, 0.042741935483871
552, -0.0014694631307312, 0.0020225424859374, 0.043548387096774
553, -0.0014694631307312, 0.0020225424859374, 0.044354838709677
554, -0.0014694631307312, 0.0020225424859374, 0.045161290322581
555, -0.0014694631307312, 0.0020225424859374, 0.045967741935484
556, -0.0014694631307312, 0.0020225424859374, 0.046774193548387
557, -0.0014694631307312, 0.0020225424859374, 0.04758064516129
558, -0.0014694631307312, 0.0020225424859374, 0.048387096774194
559, -0.0014694631307312, 0.0020225424859374, 0.049193548387097
560, -0.0020225424859374, 0.0014694631307312, 0.00080645161290323
561, -0.0020225424859374, 0.0014694631307312, 0.0016129032258065
562, -0.0020225424859374, 0.0014694631307312, 0.0024193548387097
563, -0.0020225424859374, 0.0014694631307312, 0.0032258064516129
564, -0.0020225424859374, 0.0014694631307312, 0.0040322580645161
565, -0.0020225424859374, 0.0014694631307312, 0.0048387096774194
566, -0.0020225424859374, 0.0014694631307312, 0.0056451612903226
567, -0.0020225424859374, 0.0014694631307312, 0.0064516129032258
568, -0.0020225424859374, 0.0014694631307312, 0.007258064516129
569, -0.0020225424859374, 0.0014694631307312, 0.0080645161290323
570, -0.0020225424859374, 0.0014694631307312, 0.0088709677419355
571, -0.0020225424859374, 0.0014694631307312, 0.0096774193548387
572, -0.0020225424859374, 0.0014694631307312, 0.010483870967742
573, -0.0020225424859374, 0.0014694631307312, 0.011290322580645
574, -0.0020225424859374, 0.0014694631307312, 0.012096774193548
575, -0.0020225424859374, 0.0014694631307312, 0.012903225806452
576, -0.0020225424859374, 0.0014694631307312, 0.013709677419355
577, -0.0020225424859374, 0.0014694631307312, 0.014516129032258
578, -0.0020225424859374, 0.0014694631307312, 0.015322580645161
579, -0.0020225424859374, 0.0014694631307312, 0.016129032258065
580, -0.0020225424859374, 0.0014694631307312, 0.016935483870968
581, -0.0020225424859374, 0.0014694631307312, 0.017741935483871
582, -0.0020225424859374, 0.0014694631307312, 0.018548387096774
583, -0.0020225424859374, 0.0014694631307312, 0.019354838709677
584, -0.0020225424859374, 0.0014694631307312, 0.020161290322581
585, -0.0020225424859374, 0.0014694631307312, 0.020967741935484
586, -0.0020225424859374, 0.0014694631307312, 0.021774193548387
587, -0.0020225424859374, 0.0014694631307312, 0.02258064516129
588, -0.0020225424859374, 0.0014694631307312, 0.023387096774194
589, -0.0020225424859374, 0.0014694631307312, 0.024193548387097
590, -0.0020225424859374, 0.0014694631307312, 0.025
591, -0.0020225424859374, 0.0014694631307312, 0.025806451612903
592, -0.0020225424859374, 0.0014694631307312, 0.026612903225806
593, -0.0020225424859374, 0.0014694631307312, 0.02741935483871
594, -0.0020225424859374, 0.0014694631307312, 0.028225806451613
595, -0.0020225424859374, 0.0014694631307312, 0.029032258064516
596, -0.0020225424859374, 0.0014694631307312, 0.029838709677419
597, -0.0020225424859374, 0.0014694631307312, 0.030645161290323
598, -0.0020225424859374, 0.0014694631307312, 0.031451612903226
599, -0.0020225424859374, 0.0014694631307312, 0.032258064516129
600, -0.0020225424859374, 0.0014694631307312, 0.033064516129032
601, -0.0020225424859374, 0.0014694631307312, 0.033870967741935
602, -0.0020225424859374, 0.0014694631307312, 0.034677419354839
603, -0.0020225424859374, 0.0014694631307312, 0.035483870967742
604, -0.0020225424859374, 0.0014694631307312, 0.036290322580645
605, -0.0020225424859374, 0.0014694631307312, 0.037096774193548
606, -0.0020225424859374, 0.0014694631307312, 0.037903225806452
607, -0.0020225424859374, 0.0014694631307312, 0.038709677419355
608, -0.0020225424859374, 0.0014694631307312, 0.039516129032258
609, -0.0020225424859374, 0.0014694631307312, 0.040322580645161
610, -0.0020225424859374, 0.0014694631307312, 0.041129032258065
611, -0.0020225424859374, 0.0014694631307312, 0.041935483870968
612, -0.0020225424859374, 0.0014694631307312, 0.042741935483871
613, -0.0020225424859374, 0.0014694631307312, 0.043548387096774
614, -0.0020225424859374, 0.0014694631307312, 0.044354838709677
615, -0.0020225424859374, 0.0014694631307312, 0.045161290322581
616, -0.0020225424859374, 0.0014694631307312, 0.045967741935484
617, -0.0020225424859374, 0.0014694631307312, 0.046774193548387
618, -0.0020225424859374, 0.0014694631307312, 0.04758064516129
619, -0.0020225424859374, 0.0014694631307312, 0.048387096774194
620, -0.0020225424859374, 0.0014694631307312, 0.049193548387097
621, -0.0023776412907379, 0.00077254248593737, 0.00080645161290323
622, -0.0023776412907379, 0.00077254248593737, 0.0016129032258065
623, -0.0023776412907379, 0.00077254248593737, 0.0024193548387097
624, -0.0023776412907379, 0.00077254248593737, 0.0032258064516129
625, -0.0023776412907379, 0.00077254248593737, 0.0040322580645161
626, -0.0023776412907379, 0.00077254248593737, 0.0048387096774194
627, -0.0023776412907379, 0.00077254248593737, 0.0056451612903226
628, -0.0023776412907379, 0.00077254248593737, 0.0064516129032258
629, -0.0023776412907379, 0.00077254248593737, 0.007258064516129
630, -0.0023776412907379, 0.00077254248593737, 0.0080645161290323
631, -0.0023776412907379, 0.00077254248593737, 0.0088709677419355
632, -0.0023776412907379, 0.00077254248593737, 0.0096774193548387
633, -0.0023776412907379, 0.00077254248593737, 0.010483870967742
634, -0.0023776412907379, 0.00077254248593737, 0.011290322580645
635, -0.0023776412907379, 0.00077254248593737, 0.012096774193548
636, -0.0023776412907379, 0.00077254248593737, 0.012903225806452
637, -0.0023776412907379, 0.00077254248593737, 0.013709677419355
638, -0.0023776412907379, 0.00077254248593737, 0.014516129032258
639, -0.0023776412907379, 0.00077254248593737, 0.015322580645161
640, -0.0023776412907379, 0.00077254248593737, 0.016129032258065
641, -0.0023776412907379, 0.00077254248593737, 0.016935483870968
642, -0.0023776412907379, 0.00077254248593737, 0.017741935483871
643, -0.0023776412907379, 0.00077254248593737, 0.018548387096774
644, -0.0023776412907379, 0.00077254248593737, 0.019354838709677
645, -0.0023776412907379, 0.00077254248593737, 0.020161290322581
646, -0.0023776412907379, 0.00077254248593737, 0.020967741935484
647, -0.0023776412907379, 0.00077254248593737, 0.021774193548387
648, -0.0023776412907379, 0.00077254248593737, 0.02258064516129
649, -0.0023776412907379, 0.00077254248593737, 0.023387096774194
650, -0.0023776412907379, 0.00077254248593737, 0.024193548387097
651, -0.0023776412907379, 0.00077254248593737, 0.025
652, -0.0023776412907379, 0.00077254248593737, 0.025806451612903
653, -0.0023776412907379, 0.00077254248593737, 0.026612903225806
654, -0.0023776412907379, 0.00077254248593737, 0.02741935483871
655, -0.0023776412907379, 0.00077254248593737, 0.028225806451613
656, -0.0023776412907379, 0.00077254248593737, 0.029032258064516
657, -0.0023776412907379, 0.00077254248593737, 0.029838709677419
658, -0.0023776412907379, 0.00077254248593737, 0.030645161290323
659, -0.0023776412907379, 0.00077254248593737, 0.031451612903226
660, -0.0023776412907379, 0.00077254248593737, 0.032258064516129
661, -0.0023776412907379, 0.00077254248593737, 0.033064516129032
662, -0.0023776412907379, 0.00077254248593737, 0.033870967741935
663, -0.0023776412907379, 0.00077254248593737, 0.034677419354839
664, -0.0023776412907379, 0.00077254248593737, 0.035483870967742
665, -0.0023776412907379, 0.00077254248593737, 0.036290322580645
666, -0.0023776412907379, 0.00077254248593737, 0.037096774193548
667, -0.0023776412907379, 0.00077254248593737, 0.037903225806452
668, -0.0023776412907379, 0.00077254248593737, 0.038709677419355
669, -0.0023776412907379, 0.00077254248593737, 0.039516129032258
670, -0.0023776412907379, 0.00077254248593737, 0.040322580645161
671, -0.0023776412907379, 0.00077254248593737, 0.041129032258065
672, -0.0023776412907379, 0.00077254248593737, 0.041935483870968
673, -0.0023776412907379, 0.00077254248593737, 0.042741935483871
674, -0.0023776412907379, 0.00077254248593737, 0.043548387096774
675, -0.0023776412907379, 0.00077254248593737, 0.044354838709677
676, -0.0023776412907379, 0.00077254248593737, 0.045161290322581
677, -0.0023776412907379, 0.00077254248593737, 0.045967741935484
678, -0.0023776412907379, 0.00077254248593737, 0.046774193548387
679, -0.0023776412907379, 0.00077254248593737, 0.04758064516129
680, -0.0023776412907379, 0.00077254248593737, 0.048387096774194
681, -0.0023776412907379, 0.00077254248593737, 0.049193548387097
682, -0.0025, 4.7470436869562e-18, 0.00080645161290323
683, -0.0025, 4.7470436869562e-18, 0.0016129032258065
684, -0.0025, 4.7470436869562e-18, 0.0024193548387097
685, -0.0025, 4.7470436869562e-18, 0.0032258064516129
686, -0.0025, 4.7470436869562e-18, 0.0040322580645161
687, -0.0025, 4.7470436869562e-18, 0.0048387096774194
688, -0.0025, 4.7470436869562e-18, 0.0056451612903226
689, -0.0025, 4.7470436869562e-18, 0.0064516129032258
690, -0.0025, 4.7470436869562e-18, 0.007258064516129
691, -0.0025, 4.7470436869562e-18, 0.0080645161290323
692, -0.0025, 4.7470436869562e-18, 0.0088709677419355
693, -0.0025, 4.7470436869562e-18, 0.0096774193548387
694, -0.0025, 4.7470436869562e-18, 0.010483870967742
695, -0.0025, 4.7470436869562e-18, 0.011290322580645
696, -0.0025, 4.7470436869562e-18, 0.012096774193548
697, -0.0025, 4.7470436869562e-18, 0.012903225806452
698, -0.0025, 4.7470436869562e-18, 0.013709677419355
699, -0.0025, 4.7470436869562e-18, 0.014516129032258
700, -0.0025, 4.7470436869562e-18, 0.015322580645161
701, -0.0025, 4.7470436869562e-18, 0.016129032258065
702, -0.0025, 4.7470436869562e-18, 0.016935483870968
703, -0.0025, 4.7470436869562e-18, 0.017741935483871
704, -0.0025, 4.7470436869562e-18, 0.018548387096774
705, -0.0025, 4.7470436869562e-18, 0.019354838709677
706, -0.0025, 4.7470436869562e-18, 0.020161290322581
707, -0.0025, 4.7470436869562e-18, 0.020967741935484
708, -0.0025, 4.7470436869562e-18, 0.021774193548387
709, -0.0025, 4.7470436869562e-18, 0.02258064516129
710, -0.0025, 4.7470436869562e-18, 0.023387096774194
711, -0.0025, 4.7470436869562e-18, 0.024193548387097
712, -0.0025, 4.7470436869562e-18, 0.025
713, -0.0025, 4.7470436869562e-18, 0.025806451612903
714, -0.0025, 4.7470436869562e-18, 0.026612903225806
715, -0.0025, 4.7470436869562e-18, 0.02741935483871
716, -0.0025, 4.7470436869562e-18, 0.028225806451613
717, -0.0025, 4.7470436869562e-18, 0.029032258064516
718, -0.0025, 4.7470436869562e-18, 0.029838709677419
719, -0.0025, 4.7470436869562e-18, 0.030645161290323
720, -0.0025, 4.7470436869562e-18, 0.031451612903226
721, -0.0025, 4.7470436869562e-18, 0.032258064516129
722, -0.0025, 4.7470436869562e-18, 0.033064516129032
723, -0.0025, 4.7470436869562e-18, 0.033870967741935
724, -0.0025, 4.7470436869562e-18, 0.034677419354839
725, -0.0025, 4.7470436869562e-18, 0.035483870967742
726, -0.0025, 4.7470436869562e-18, 0.036290322580645
727, -0.0025, 4.7470436869562e-18, 0.037096774193548
728, -0.0025, 4.7470436869562e-18, 0.037903225806452
729, -0.0025, 4.7470436869562e-18, 0.038709677419355
730, -0.0025, 4.7470436869562e-18, 0.039516129032258
731, -0.0025, 4.7470436869562e-18, 0.040322580645161
732, -0.0025, 4.7470436869562e-18, 0.041129032258065
733, -0.0025, 4.7470436869562e-18, 0.041935483870968
734, -0.0025, 4.7470436869562e-18, 0.042741935483871
735, -0.0025, 4.7470436869562e-18, 0.043548387096774
736, -0.0025, 4.7470436869562e-18, 0.044354838709677
737, -0.0025, 4.7470436869562e-18, 0.045161290322581
738, -0.0025, 4.7470436869562e-18, 0.045967741935484
739, -0.0025, 4.7470436869562e-18, 0.046774193548387
740, -0.0025, 4.7470436869562e-18, 0.04758064516129
741, -0.0025, 4.7470436869562e-18, 0.048387096774194
742, -0.0025, 4.7470436869562e-18, 0.049193548387097
743, -0.0023776412907379, -0.00077254248593736, 0.00080645161290323
744, -0.0023776412907379, -0.00077254248593736, 0.0016129032258065
745, -0.0023776412907379, -0.00077254248593736, 0.0024193548387097
746, -0.0023776412907379, -0.00077254248593736, 0.0032258064516129
747, -0.0023776412907379, -0.00077254248593736, 0.0040322580645161
748, -0.0023776412907379, -0.00077254248593736, 0.0048387096774194
749, -0.0023776412907379, -0.00077254248593736, 0.0056451612903226
750, -0.0023776412907379, -0.00077254248593736, 0.0064516129032258
751, -0.0023776412907379, -0.00077254248593736, 0.007258064516129
752, -0.0023776412907379, -0.00077254248593736, 0.0080645161290323
753, -0.0023776412907379, -0.00077254248593736, 0.0088709677419355
754, -0.0023776412907379, -0.00077254248593736, 0.0096774193548387
755, -0.0023776412907379, -0.00077254248593736, 0.010483870967742
756, -0.0023776412907379, -0.00077254248593736, 0.011290322580645
757, -0.0023776412907379, -0.00077254248593736, 0.012096774193548
758, -0.0023776412907379, -0.00077254248593736, 0.012903225806452
759, -0.0023776412907379, -0.00077254248593736, 0.013709677419355
760, -0.0023776412907379, -0.00077254248593736, 0.014516129032258
761, -0.0023776412907379, -0.00077254248593736, 0.015322580645161
762, -0.0023776412907379, -0.00077254248593736, 0.016129032258065
763, -0.0023776412907379, -0.00077254248593736, 0.016935483870968
764, -0.0023776412907379, -0.00077254248593736, 0.017741935483871
765, -0.0023776412907379, -0.00077254248593736, 0.018548387096774
766, -0.0023776412907379, -0.00077254248593736, 0.019354838709677
767, -0.0023776412907379, -0.00077254248593736, 0.020161290322581
768, -0.0023776412907379, -0.00077254248593736, 0.020967741935484
769, -0.0023776412907379, -0.00077254248593736, 0.021774193548387
770, -0.0023776412907379, -0.00077254248593736, 0.02258064516129
771, -0.0023776412907379, -0.00077254248593736, 0.023387096774194
772, -0.0023776412907379, -0.00077254248593736, 0.024193548387097
773, -0.0023776412907379, -0.00077254248593736, 0.025
774, -0.0023776412907379, -0.00077254248593736, 0.025806451612903
775, -0.0023776412907379, -0.00077254248593736, 0.026612903225806
776, -0.0023776412907379, -0.00077254248593736, 0.02741935483871
777, -0.0023776412907379, -0.00077254248593736, 0.028225806451613
778, -0.0023776412907379, -0.00077254248593736, 0.029032258064516
779, -0.0023776412907379, -0.00077254248593736, 0.029838709677419
780, -0.0023776412907379, -0.00077254248593736, 0.030645161290323
781, -0.0023776412907379, -0.00077254248593736, 0.031451612903226
782, -0.0023776412907379, -0.00077254248593736, 0.032258064516129
783, -0.0023776412907379, -0.00077254248593736, 0.033064516129032
784, -0.0023776412907379, -0.00077254248593736, 0.033870967741935
785, -0.0023776412907379, -0.00077254248593736, 0.034677419354839
786, -0.0023776412907379, -0.00077254248593736, 0.035483870967742
787, -0.0023776412907379, -0.00077254248593736, 0.036290322580645
788, -0.0023776412907379, -0.00077254248593736, 0.037096774193548
789, -0.0023776412907379, -0.00077254248593736, 0.037903225806452
790, -0.0023776412907379, -0.00077254248593736, 0.038709677419355
791, -0.0023776412907379, -0.00077254248593736, 0.039516129032258
792, -0.0023776412907379, -0.00077254248593736, 0.040322580645161
793, -0.0023776412907379, -0.00077254248593736, 0.041129032258065
794, -0.0023776412907379, -0.00077254248593736, 0.041935483870968
795, -0.0023776412907379, -0.00077254248593736, 0.042741935483871
796, -0.0023776412907379, -0.00077254248593736, 0.043548387096774
797, -0.0023776412907379, -0.00077254248593736, 0.044354838709677
798, -0.0023776412907379, -0.00077254248593736, 0.045161290322581
799, -0.0023776412907379, -0.00077254248593736, 0.045967741935484
800, -0.0023776412907379, -0.00077254248593736, 0.046774193548387
801, -0.0023776412907379, -0.00077254248593736, 0.04758064516129
802, -0.0023776412907379, -0.00077254248593736, 0.048387096774194
803, -0.0023776412907379, -0.00077254248593736, 0.049193548387097
804, -0.0020225424859374, -0.0014694631307312, 0.00080645161290323
805, -0.0020225424859374, -0.0014694631307312, 0.0016129032258065
806, -0.0020225424859374, -0.0014694631307312, 0.0024193548387097
807, -0.0020225424859374, -0.0014694631307312, 0.0032258064516129
808, -0.0020225424859374, -0.0014694631307312, 0.0040322580645161
809, -0.0020225424859374, -0.0014694631307312, 0.0048387096774194
810, -0.0020225424859374, -0.0014694631307312, 0.0056451612903226
811, -0.0020225424859374, -0.0014694631307312, 0.0064516129032258
812, -0.0020225424859374, -0.0014694631307312, 0.007258064516129
813, -0.0020225424859374, -0.0014694631307312, 0.0080645161290323
814, -0.0020225424859374, -0.0014694631307312, 0.0088709677419355
815, -0.0020225424859374, -0.0014694631307312, 0.0096774193548387
816, -0.0020225424859374, -0.0014694631307312, 0.010483870967742
817, -0.0020225424859374, -0.0014694631307312, 0.011290322580645
818, -0.0020225424859374, -0.0014694631307312, 0.012096774193548
819, -0.0020225424859374, -0.0014694631307312, 0.012903225806452
820, -0.0020225424859374, -0.0014694631307312, 0.013709677419355
821, -0.0020225424859374, -0.0014694631307312, 0.014516129032258
822, -0.0020225424859374, -0.0014694631307312, 0.015322580645161
823, -0.0020225424859374, -0.0014694631307312, 0.016129032258065
824, -0.0020225424859374, -0.0014694631307312, 0.016935483870968
825, -0.0020225424859374, -0.0014694631307312, 0.017741935483871
826, -0.0020225424859374, -0.0014694631307312, 0.018548387096774
827, -0.0020225424859374, -0.0014694631307312, 0.019354838709677
828, -0.0020225424859374, -0.0014694631307312, 0.020161290322581
829, -0.0020225424859374, -0.0014694631307312, 0.020967741935484
830, -0.0020225424859374, -0.0014694631307312, 0.021774193548387
831, -0.0020225424859374, -0.0014694631307312, 0.02258064516129
832, -0.0020225424859374, -0.0014694631307312, 0.023387096774194
833, -0.0020225424859374, -0.0014694631307312, 0.024193548387097
834, -0.0020225424859374, -0.0014694631307312, 0.025
835, -0.0020225424859374, -0.0014694631307312, 0.025806451612903
836, -0.0020225424859374, -0.0014694631307312, 0.026612903225806
837, -0.0020225424859374, -0.0014694631307312, 0.02741935483871
838, -0.0020225424859374, -0.0014694631307312, 0.028225806451613
839, -0.0020225424859374, -0.0014694631307312, 0.029032258064516
840, -0.0020225424859374, -0.0014694631307312, 0.029838709677419
841, -0.0020225424859374, -0.0014694631307312, 0.030645161290323
842, -0.0020225424859374, -0.0014694631307312, 0.031451612903226
843, -0.0020225424859374, -0.0014694631307312, 0.032258064516129
844, -0.0020225424859374, -0.0014694631307312, 0.033064516129032
845, -0.0020225424859374, -0.0014694631307312, 0.033870967741935
846, -0.0020225424859374, -0.0014694631307312, 0.034677419354839
847, -0.0020225424859374, -0.0014694631307312, 0.035483870967742
848, -0.0020225424859374, -0.0014694631307312, 0.036290322580645
849, -0.0020225424859374, -0.0014694631307312, 0.037096774193548
850, -0.0020225424859374, -0.0014694631307312, 0.037903225806452
851, -0.0020225424859374, -0.0014694631307312, 0.038709677419355
852, -0.0020225424859374, -0.0014694631307312, 0.039516129032258
853, -0.0020225424859374, -0.0014694631307312, 0.040322580645161
854, -0.0020225424859374, -0.0014694631307312, 0.041129032258065
855, -0.0020225424859374, -0.0014694631307312, 0.041935483870968
856, -0.0020225424859374, -0.0014694631307312, 0.042741935483871
857, -0.0020225424859374, -0.0014694631307312, 0.043548387096774
858, -0.0020225424859374, -0.0014694631307312, 0.044354838709677
859, -0.0020225424859374, -0.0014694631307312, 0.045161290322581
860, -0.0020225424859374, -0.0014694631307312, 0.045967741935484
861, -0.0020225424859374, -0.0014694631307312, 0.046774193548387
862, -0.0020225424859374, -0.0014694631307312, 0.04758064516129
863, -0.0020225424859374, -0.0014694631307312, 0.048387096774194
864, -0.0020225424859374, -0.0014694631307312, 0.049193548387097
865, -0.0014694631307312, -0.0020225424859374, 0.00080645161290323
866, -0.0014694631307312, -0.0020225424859374, 0.0016129032258065
867, -0.0014694631307312, -0.0020225424859374, 0.0024193548387097
868, -0.0014694631307312, -0.0020225424859374, 0.0032258064516129
869, -0.0014694631307312, -0.0020225424859374, 0.0040322580645161
870, -0.0014694631307312, -0.0020225424859374, 0.0048387096774194
871, -0.0014694631307312, -0.0020225424859374, 0.0056451612903226
872, -0.0014694631307312, -0.0020225424859374, 0.0064516129032258
873, -0.0014694631307312, -0.0020225424859374, 0.007258064516129
874, -0.0014694631307312, -0.0020225424859374, 0.0080645161290323
875, -0.0014694631307312, -0.0020225424859374, 0.0088709677419355
876, -0.0014694631307312, -0.0020225424859374, 0.0096774193548387
877, -0.0014694631307312, -0.0020225424859374, 0.010483870967742
878, -0.0014694631307312, -0.0020225424859374, 0.011290322580645
879, -0.0014694631307312, -0.0020225424859374, 0.012096774193548
880, -0.0014694631307312, -0.0020225424859374, 0.012903225806452
881, -0.0014694631307312, -0.0020225424859374, 0.013709677419355
882, -0.0014694631307312, -0.0020225424859374, 0.014516129032258
883, -0.0014694631307312, -0.0020225424859374, 0.015322580645161
884, -0.0014694631307312, -0.0020225424859374, 0.016129032258065
885, -0.0014694631307312, -0.0020225424859374, 0.016935483870968
886, -0.0014694631307312, -0.0020225424859374, 0.017741935483871
887, -0.0014694631307312, -0.0020225424859374, 0.018548387096774
888, -0.0014694631307312, -0.0020225424859374, 0.019354838709677
889, -0.0014694631307312, -0.0020225424859374, 0.020161290322581
890, -0.0014694631307312, -0.0020225424859374, 0.020967741935484
891, -0.0014694631307312, -0.0020225424859374, 0.021774193548387
892, -0.0014694631307312, -0.0020225424859374, 0.02258064516129
893, -0.0014694631307312, -0.0020225424859374, 0.023387096774194
894, -0.0014694631307312, -0.0020225424859374, 0.024193548387097
895, -0.0014694631307312, -0.0020225424859374, 0.025
896, -0.0014694631307312, -0.0020225424859374, 0.025806451612903
897, -0.0014694631307312, -0.0020225424859374, 0.026612903225806
898, -0.0014694631307312, -0.0020225424859374, 0.02741935483871
899, -0.0014694631307312, -0.0020225424859374, 0.028225806451613
900, -0.0014694631307312, -0.0020225424859374, 0.029032258064516
901, -0.0014694631307312, -0.0020225424859374, 0.029838709677419
902, -0.0014694631307312, -0.0020225424859374, 0.030645161290323
903, -0.0014694631307312, -0.0020225424859374, 0.031451612903226
904, -0.0014694631307312, -0.0020225424859374, 0.032258064516129
905, -0.0014694631307312, -0.0020225424859374, 0.033064516129032
906, -0.0014694631307312, -0.0020225424859374, 0.033870967741935
907, -0.0014694631307312, -0.0020225424859374, 0.034677419354839
908, -0.0014694631307312, -0.0020225424859374, 0.035483870967742
909, -0.0014694631307312, -0.0020225424859374, 0.036290322580645
910, -0.0014694631307312, -0.0020225424859374, 0.037096774193548
911, -0.0014694631307312, -0.0020225424859374, 0.037903225806452
912, -0.0014694631307312, -0.0020225424859374, 0.038709677419355
913, -0.0014694631307312, -0.0020225424859374, 0.039516129032258
914, -0.0014694631307312, -0.0020225424859374, 0.040322580645161
915, -0.0014694631307312, -0.0020225424859374, 0.041129032258065
916, -0.0014694631307312, -0.0020225424859374, 0.041935483870968
917, -0.0014694631307312, -0.0020225424859374, 0.042741935483871
918, -0.0014694631307312, -0.0020225424859374, 0.043548387096774
919, -0.0014694631307312, -0.0020225424859374, 0.044354838709677
920, -0.0014694631307312, -0.0020225424859374, 0.045161290322581
921, -0.0014694631307312, -0.0020225424859374, 0.045967741935484
922, -0.0014694631307312, -0.0020225424859374, 0.046774193548387
923, -0.0014694631307312, -0.0020225424859374, 0.04758064516129
924, -0.0014694631307312, -0.0020225424859374, 0.048387096774194
925, -0.0014694631307312, -0.0020225424859374, 0.049193548387097
926, -0.00077254248593738, -0.0023776412907379, 0.00080645161290323
927, -0.00077254248593738, -0.0023776412907379, 0.0016129032258065
928, -0.00077254248593738, -0.0023776412907379, 0.0024193548387097
929, -0.00077254248593738, -0.0023776412907379, 0.0032258064516129
930, -0.00077254248593738, -0.0023776412907379, 0.0040322580645161
931, -0.00077254248593738, -0.0023776412907379, 0.0048387096774194
932, -0.00077254248593738, -0.0023776412907379, 0.0056451612903226
933, -0.00077254248593738, -0.0023776412907379, 0.0064516129032258
934, -0.00077254248593738, -0.0023776412907379, 0.007258064516129
935, -0.00077254248593738, -0.0023776412907379, 0.0080645161290323
936, -0.00077254248593738, -0.0023776412907379, 0.0088709677419355
937, -0.00077254248593738, -0.0023776412907379, 0.0096774193548387
938, -0.00077254248593738, -0.0023776412907379, 0.010483870967742
939, -0.00077254248593738, -0.0023776412907379, 0.011290322580645
940, -0.00077254248593738, -0.0023776412907379, 0.012096774193548
941, -0.00077254248593738, -0.0023776412907379, 0.012903225806452
942, -0.00077254248593738, -0.0023776412907379, 0.013709677419355
943, -0.00077254248593738, -0.0023776412907379, 0.014516129032258
944, -0.00077254248593738, -0.0023776412907379, 0.015322580645161
945, -0.00077254248593738, -0.0023776412907379, 0.016129032258065
946, -0.00077254248593738, -0.0023776412907379, 0.016935483870968
947, -0.00077254248593738, -0.0023776412907379, 0.017741935483871
948, -0.00077254248593738, -0.0023776412907379, 0.018548387096774
949, -0.00077254248593738, -0.0023776412907379, 0.019354838709677
950, -0.00077254248593738, -0.0023776412907379, 0.020161290322581
951, -0.00077254248593738, -0.0023776412907379, 0.020967741935484
952, -0.00077254248593738, -0.0023776412907379, 0.021774193548387
953, -0.00077254248593738, -0.0023776412907379, 0.02258064516129
954, -0.00077254248593738, -0.0023776412907379, 0.023387096774194
955, -0.00077254248593738, -0.0023776412907379, 0.024193548387097
956, -0.00077254248593738, -0.0023776412907379, 0.025
957, -0.00077254248593738, -0.0023776412907379, 0.025806451612903
958, -0.00077254248593738, -0.0023776412907379, 0.026612903225806
959, -0.00077254248593738, -0.0023776412907379, 0.02741935483871
960, -0.00077254248593738, -0.0023776412907379, 0.028225806451613
961, -0.00077254248593738, -0.0023776412907379, 0.029032258064516
962, -0.00077254248593738, -0.0023776412907379, 0.029838709677419
963, -0.00077254248593738, -0.0023776412907379, 0.030645161290323
964, -0.00077254248593738, -0.0023776412907379, 0.031451612903226
965, -0.00077254248593738, -0.0023776412907379, 0.032258064516129
966, -0.00077254248593738, -0.0023776412907379, 0.033064516129032
967, -0.00077254248593738, -0.0023776412907379, 0.033870967741935
968, -0.00077254248593738, -0.0023776412907379, 0.034677419354839
969, -0.00077254248593738, -0.0023776412907379, 0.035483870967742
970, -0.00077254248593738, -0.0023776412907379, 0.036290322580645
971, -0.00077254248593738, -0.0023776412907379, 0.037096774193548
972, -0.00077254248593738, -0.0023776412907379, 0.037903225806452
973, -0.00077254248593738, -0.0023776412907379, 0.038709677419355
974, -0.00077254248593738, -0.0023776412907379, 0.039516129032258
975, -0.00077254248593738, -0.0023776412907379, 0.040322580645161
976, -0.00077254248593738, -0.0023776412907379, 0.041129032258065
977, -0.00077254248593738, -0.0023776412907379, 0.041935483870968
978, -0.00077254248593738, -0.0023776412907379, 0.042741935483871
979, -0.00077254248593738, -0.0023776412907379, 0.043548387096774
980, -0.00077254248593738, -0.0023776412907379, 0.044354838709677
981, -0.00077254248593738, -0.0023776412907379, 0.045161290322581
982, -0.00077254248593738, -0.0023776412907379, 0.045967741935484
983, -0.00077254248593738, -0.0023776412907379, 0.046774193548387
984, -0.00077254248593738, -0.0023776412907379, 0.04758064516129
985, -0.00077254248593738, -0.0023776412907379, 0.048387096774194
986, -0.00077254248593738, -0.0023776412907379, 0.049193548387097
987, -1.3781903678185e-17, -0.0025, 0.00080645161290323
988, -1.3781903678185e-17, -0.0025, 0.0016129032258065
989, -1.3781903678185e-17, -0.0025, 0.0024193548387097
990, -1.3781903678185e-17, -0.0025, 0.0032258064516129
991, -1.3781903678185e-17, -0.0025, 0.0040322580645161
992, -1.3781903678185e-17, -0.0025, 0.0048387096774194
993, -1.3781903678185e-17, -0.0025, 0.0056451612903226
994, -1.3781903678185e-17, -0.0025, 0.0064516129032258
995, -1.3781903678185e-17, -0.0025, 0.007258064516129
996, -1.3781903678185e-17, -0.0025, 0.0080645161290323
997, -1.3781903678185e-17, -0.0025, 0.0088709677419355
998, -1.3781903678185e-17, -0.0025, 0.0096774193548387
999, -1.3781903678185e-17, -0.0025, 0.010483870967742
1000, -1.3781903678185e-17, -0.0025, 0.011290322580645
1001, -1.3781903678185e-17, -0.0025, 0.012096774193548
1002, -1.3781903678185e-17, -0.0025, 0.012903225806452
1003, -1.3781903678185e-17, -0.0025, 0.013709677419355
1004, -1.3781903678185e-17, -0.0025, 0.014516129032258
1005, -1.3781903678185e-17, -0.0025, 0.015322580645161
1006, -1.3781903678185e-17, -0.0025, 0.016129032258065
1007, -1.3781903678185e-17, -0.0025, 0.016935483870968
1008, -1.3781903678185e-17, -0.0025, 0.017741935483871
1009, -1.3781903678185e-17, -0.0025, 0.018548387096774
1010, -1.3781903678185e-17, -0.0025, 0.019354838709677
1011, -1.3781903678185e-17, -0.0025, 0.020161290322581
1012, -1.3781903678185e-17, -0.0025, 0.020967741935484
1013, -1.3781903678185e-17, -0.0025, 0.021774193548387
1014, -1.3781903678185e-17, -0.0025, 0.02258064516129
1015, -1.3781903678185e-17, -0.0025, 0.023387096774194
1016, -1.3781903678185e-17, -0.0025, 0.024193548387097
1017, -1.3781903678185e-17, -0.0025, 0.025
1018, -1.3781903678185e-17, -0.0025, 0.025806451612903
1019, -1.3781903678185e-17, -0.0025, 0.026612903225806
1020, -1.3781903678185e-17, -0.0025, 0.02741935483871
1021, -1.3781903678185e-17, -0.0025, 0.028225806451613
1022, -1.3781903678185e-17, -0.0025, 0.029032258064516
1023, -1.3781903678185e-17, -0.0025, 0.029838709677419
1024, -1.3781903678185e-17, -0.0025, 0.030645161290323
1025, -1.3781903678185e-17, -0.0025, 0.031451612903226
1026, -1.3781903678185e-17, -0.0025, 0.032258064516129
1027, -1.3781903678185e-17, -0.0025, 0.033064516129032
1028, -1.3781903678185e-17, -0.0025, 0.033870967741935
1029, -1.3781903678185e-17, -0.0025, 0.034677419354839
1030, -1.3781903678185e-17, -0.0025, 0.035483870967742
1031, -1.3781903678185e-17, -0.0025, 0.036290322580645
1032, -1.3781903678185e-17, -0.0025, 0.037096774193548
1033, -1.3781903678185e-17, -0.0025, 0.037903225806452
1034, -1.3781903678185e-17, -0.0025, 0.038709677419355
1035, -1.3781903678185e-17, -0.0025, 0.039516129032258
1036, -1.3781903678185e-17, -0.0025, 0.040322580645161
1037, -1.3781903678185e-17, -0.0025, 0.041129032258065
1038, -1.3781903678185e-17, -0.0025, 0.041935483870968
1039, -1.3781903678185e-17, -0.0025, 0.042741935483871
1040, -1.3781903678185e-17, -0.0025, 0.043548387096774
1041, -1.3781903678185e-17, -0.0025, 0.044354838709677
1042, -1.3781903678185e-17, -0.0025, 0.045161290322581
1043, -1.3781903678185e-17, -0.0025, 0.045967741935484
1044, -1.3781903678185e-17, -0.0025, 0.046774193548387
1045, -1.3781903678185e-17, -0.0025, 0.04758064516129
1046, -1.3781903678185e-17, -0.0025, 0.048387096774194
1047, -1.3781903678185e-17, -0.0025, 0.049193548387097
1048, 0.00077254248593735, -0.0023776412907379, 0.00080645161290323
1049, 0.00077254248593735, -0.0023776412907379, 0.0016129032258065
1050, 0.00077254248593735, -0.0023776412907379, 0.0024193548387097
1051, 0.00077254248593735, -0.0023776412907379, 0.0032258064516129
1052, 0.00077254248593735, -0.0023776412907379, 0.0040322580645161
1053, 0.00077254248593735, -0.0023776412907379, 0.0048387096774194
1054, 0.00077254248593735, -0.0023776412907379, 0.0056451612903226
1055, 0.00077254248593735, -0.0023776412907379, 0.0064516129032258
1056, 0.00077254248593735, -0.0023776412907379, 0.007258064516129
1057, 0.00077254248593735, -0.0023776412907379, 0.0080645161290323
1058, 0.00077254248593735, -0.0023776412907379, 0.0088709677419355
1059, 0.00077254248593735, -0.0023776412907379, 0.0096774193548387
1060, 0.00077254248593735, -0.0023776412907379, 0.010483870967742
1061, 0.00077254248593735, -0.0023776412907379, 0.011290322580645
1062, 0.00077254248593735, -0.0023776412907379, 0.012096774193548
1063, 0.00077254248593735, -0.0023776412907379, 0.012903225806452
1064, 0.00077254248593735, -0.0023776412907379, 0.013709677419355
1065, 0.00077254248593735, -0.0023776412907379, 0.014516129032258
1066, 0.00077254248593735, -0.0023776412907379, 0.015322580645161
1067, 0.00077254248593735, -0.0023776412907379, 0.016129032258065
1068, 0.00077254248593735, -0.0023776412907379, 0.016935483870968
1069, 0.00077254248593735, -0.0023776412907379, 0.017741935483871
1070, 0.00077254248593735, -0.0023776412907379, 0.018548387096774
1071, 0.00077254248593735, -0.0023776412907379, 0.019354838709677
1072, 0.00077254248593735, -0.0023776412907379, 0.020161290322581
1073, 0.00077254248593735, -0.0023776412907379, 0.020967741935484
1074, 0.00077254248593735, -0.0023776412907379, 0.021774193548387
1075, 0.00077254248593735, -0.0023776412907379, 0.02258064516129
1076, 0.00077254248593735, -0.0023776412907379, 0.023387096774194
1077, 0.00077254248593735, -0.0023776412907379, 0.024193548387097
1078, 0.00077254248593735, -0.0023776412907379, 0.025
1079, 0.00077254248593735, -0.0023776412907379, 0.025806451612903
1080, 0.00077254248593735, -0.0023776412907379, 0.026612903225806
1081, 0.00077254248593735, -0.0023776412907379, 0.02741935483871
1082, 0.00077254248593735, -0.0023776412907379, 0.028225806451613
1083, 0.00077254248593735, -0.0023776412907379, 0.029032258064516
1084, 0.00077254248593735, -0.0023776412907379, 0.029838709677419
1085, 0.00077254248593735, -0.0023776412907379, 0.030645161290323
1086, 0.00077254248593735, -0.0023776412907379, 0.031451612903226
1087, 0.00077254248593735, -0.0023776412907379, 0.032258064516129
1088, 0.00077254248593735, -0.0023776412907379, 0.033064516129032
1089, 0.00077254248593735, -0.0023776412907379, 0.033870967741935
1090, 0.00077254248593735, -0.0023776412907379, 0.034677419354839
1091, 0.00077254248593735, -0.0023776412907379, 0.035483870967742
1092, 0.00077254248593735, -0.0023776412907379, 0.036290322580645
1093, 0.00077254248593735, -0.0023776412907379, 0.037096774193548
1094, 0.00077254248593735, -0.0023776412907379, 0.037903225806452
1095, 0.00077254248593735, -0.0023776412907379, 0.038709677419355
1096, 0.00077254248593735, -0.0023776412907379, 0.039516129032258
1097, 0.00077254248593735, -0.0023776412907379, 0.040322580645161
1098, 0.00077254248593735, -0.0023776412907379, 0.041129032258065
1099, 0.00077254248593735, -0.0023776412907379, 0.041935483870968
1100, 0.00077254248593735, -0.0023776412907379, 0.042741935483871
1101, 0.00077254248593735, -0.0023776412907379, 0.043548387096774
1102, 0.00077254248593735, -0.0023776412907379, 0.044354838709677
1103, 0.00077254248593735, -0.0023776412907379, 0.045161290322581
1104, 0.00077254248593735, -0.0023776412907379, 0.045967741935484
1105, 0.00077254248593735, -0.0023776412907379, 0.046774193548387
1106, 0.00077254248593735, -0.0023776412907379, 0.04758064516129
1107, 0.00077254248593735, -0.0023776412907379, 0.048387096774194
1108, 0.00077254248593735, -0.0023776412907379, 0.049193548387097
1109, 0.0014694631307312, -0.0020225424859374, 0.00080645161290323
1110, 0.0014694631307312, -0.0020225424859374, 0.0016129032258065
1111, 0.0014694631307312, -0.0020225424859374, 0.0024193548387097
1112, 0.0014694631307312, -0.0020225424859374, 0.0032258064516129
1113, 0.0014694631307312, -0.0020225424859374, 0.0040322580645161
1114, 0.0014694631307312, -0.0020225424859374, 0.0048387096774194
1115, 0.0014694631307312, -0.0020225424859374, 0.0056451612903226
1116, 0.0014694631307312, -0.0020225424859374, 0.0064516129032258
1117, 0.0014694631307312, -0.0020225424859374, 0.007258064516129
1118, 0.0014694631307312, -0.0020225424859374, 0.0080645161290323
1119, 0.0014694631307312, -0.0020225424859374, 0.0088709677419355
1120, 0.0014694631307312, -0.0020225424859374, 0.0096774193548387
1121, 0.0014694631307312, -0.0020225424859374, 0.010483870967742
1122, 0.0014694631307312, -0.0020225424859374, 0.011290322580645
1123, 0.0014694631307312, -0.0020225424859374, 0.012096774193548
1124, 0.0014694631307312, -0.0020225424859374, 0.012903225806452
1125, 0.0014694631307312, -0.0020225424859374, 0.013709677419355
1126, 0.0014694631307312, -0.0020225424859374, 0.014516129032258
1127, 0.0014694631307312, -0.0020225424859374, 0.015322580645161
1128, 0.0014694631307312, -0.0020225424859374, 0.016129032258065
1129, 0.0014694631307312, -0.0020225424859374, 0.016935483870968
1130, 0.0014694631307312, -0.0020225424859374, 0.017741935483871
1131, 0.0014694631307312, -0.0020225424859374, 0.018548387096774
1132, 0.0014694631307312, -0.0020225424859374, 0.019354838709677
1133, 0.0014694631307312, -0.0020225424859374, 0.020161290322581
1134, 0.0014694631307312, -0.0020225424859374, 0.020967741935484
1135, 0.0014694631307312, -0.0020225424859374, 0.021774193548387
1136, 0.0014694631307312, -0.0020225424859374, 0.02258064516129
1137, 0.0014694631307312, -0.0020225424859374, 0.023387096774194
1138, 0.0014694631307312, -0.0020225424859374, 0.024193548387097
1139, 0.0014694631307312, -0.0020225424859374, 0.025
1140, 0.0014694631307312, -0.0020225424859374, 0.025806451612903
1141, 0.0014694631307312, -0.0020225424859374, 0.026612903225806
1142, 0.0014694631307312, -0.0020225424859374, 0.02741935483871
1143, 0.0014694631307312, -0.0020225424859374, 0.028225806451613
1144, 0.0014694631307312, -0.0020225424859374, 0.029032258064516
1145, 0.0014694631307312, -0.0020225424859374, 0.029838709677419
1146, 0.0014694631307312, -0.0020225424859374, 0.030645161290323
1147, 0.0014694631307312, -0.0020225424859374, 0.031451612903226
1148, 0.0014694631307312, -0.0020225424859374, 0.032258064516129
1149, 0.0014694631307312, -0.0020225424859374, 0.033064516129032
1150, 0.0014694631307312, -0.0020225424859374, 0.033870967741935
1151, 0.0014694631307312, -0.0020225424859374, 0.034677419354839
1152, 0.0014694631307312, -0.0020225424859374, 0.035483870967742
1153, 0.0014694631307312, -0.0020225424859374, 0.036290322580645
1154, 0.0014694631307312, -0.0020225424859374, 0.037096774193548
1155, 0.0014694631307312, -0.0020225424859374, 0.037903225806452
1156, 0.0014694631307312, -0.0020225424859374, 0.038709677419355
1157, 0.0014694631307312, -0.0020225424859374, 0.039516129032258
1158, 0.0014694631307312, -0.0020225424859374, 0.040322580645161
1159, 0.0014694631307312, -0.0020225424859374, 0.041129032258065
1160, 0.0014694631307312, -0.0020225424859374, 0.041935483870968
1161, 0.0014694631307312, -0.0020225424859374, 0.042741935483871
1162, 0.0014694631307312, -0.0020225424859374, 0.043548387096774
1163, 0.0014694631307312, -0.0020225424859374, 0.044354838709677
1164, 0.0014694631307312, -0.0020225424859374, 0.045161290322581
1165, 0.0014694631307312, -0.0020225424859374, 0.045967741935484
1166, 0.0014694631307312, -0.0020225424859374, 0.046774193548387
1167, 0.0014694631307312, -0.0020225424859374, 0.04758064516129
1168, 0.0014694631307312, -0.0020225424859374, 0.048387096774194
1169, 0.0014694631307312, -0.0020225424859374, 0.049193548387097
1170, 0.0020225424859374, -0.0014694631307312, 0.00080645161290323
1171, 0.0020225424859374, -0.0014694631307312, 0.0016129032258065
1172, 0.0020225424859374, -0.0014694631307312, 0.0024193548387097
1173, 0.0020225424859374, -0.0014694631307312, 0.0032258064516129
1174, 0.0020225424859374, -0.0014694631307312, 0.0040322580645161
1175, 0.0020225424859374, -0.0014694631307312, 0.0048387096774194
1176, 0.0020225424859374, -0.0014694631307312, 0.0056451612903226
1177, 0.0020225424859374, -0.0014694631307312, 0.0064516129032258
1178, 0.0020225424859374, -0.0014694631307312, 0.007258064516129
1179, 0.0020225424859374, -0.0014694631307312, 0.0080645161290323
1180, 0.0020225424859374, -0.0014694631307312, 0.0088709677419355
1181, 0.0020225424859374, -0.0014694631307312, 0.0096774193548387
1182, 0.0020225424859374, -0.0014694631307312, 0.010483870967742
1183, 0.0020225424859374, -0.0014694631307312, 0.011290322580645
1184, 0.0020225424859374, -0.0014694631307312, 0.012096774193548
1185, 0.0020225424859374, -0.0014694631307312, 0.012903225806452
1186, 0.0020225424859374, -0.0014694631307312, 0.013709677419355
1187, 0.0020225424859374, -0.0014694631307312, 0.014516129032258
1188, 0.0020225424859374, -0.0014694631307312, 0.015322580645161
1189, 0.0020225424859374, -0.0014694631307312, 0.016129032258065
1190, 0.0020225424859374, -0.0014694631307312, 0.016935483870968
1191, 0.0020225424859374, -0.0014694631307312, 0.017741935483871
1192, 0.0020225424859374, -0.0014694631307312, 0.018548387096774
1193, 0.0020225424859374, -0.0014694631307312, 0.019354838709677
1194, 0.0020225424859374, -0.0014694631307312, 0.020161290322581
1195, 0.0020225424859374, -0.0014694631307312, 0.020967741935484
1196, 0.0020225424859374, -0.0014694631307312, 0.021774193548387
1197, 0.0020225424859374, -0.0014694631307312, 0.02258064516129
1198, 0.0020225424859374, -0.0014694631307312, 0.023387096774194
1199, 0.0020225424859374, -0.0014694631307312, 0.024193548387097
1200, 0.0020225424859374, -0.0014694631307312, 0.025
1201, 0.0020225424859374, -0.0014694631307312, 0.025806451612903
1202, 0.0020225424859374, -0.0014694631307312, 0.026612903225806
1203, 0.0020225424859374, -0.0014694631307312, 0.02741935483871
1204, 0.0020225424859374, -0.0014694631307312, 0.028225806451613
1205, 0.0020225424859374, -0.0014694631307312, 0.029032258064516
1206, 0.0020225424859374, -0.0014694631307312, 0.029838709677419
1207, 0.0020225424859374, -0.0014694631307312, 0.030645161290323
1208, 0.0020225424859374, -0.0014694631307312, 0.031451612903226
1209, 0.0020225424859374, -0.0014694631307312, 0.032258064516129
1210, 0.0020225424859374, -0.0014694631307312, 0.033064516129032
1211, 0.0020225424859374, -0.0014694631307312, 0.033870967741935
1212, 0.0020225424859374, -0.0014694631307312, 0.034677419354839
1213, 0.0020225424859374, -0.0014694631307312, 0.035483870967742
1214, 0.0020225424859374, -0.0014694631307312, 0.036290322580645
1215, 0.0020225424859374, -0.0014694631307312, 0.037096774193548
1216, 0.0020225424859374, -0.0014694631307312, 0.037903225806452
1217, 0.0020225424859374, -0.0014694631307312, 0.038709677419355
1218, 0.0020225424859374, -0.0014694631307312, 0.039516129032258
1219, 0.0020225424859374, -0.0014694631307312, 0.040322580645161
1220, 0.0020225424859374, -0.0014694631307312, 0.041129032258065
1221, 0.0020225424859374, -0.0014694631307312, 0.041935483870968
1222, 0.0020225424859374, -0.0014694631307312, 0.042741935483871
1223, 0.0020225424859374, -0.0014694631307312, 0.043548387096774
1224, 0.0020225424859374, -0.0014694631307312, 0.044354838709677
1225, 0.0020225424859374, -0.0014694631307312, 0.045161290322581
1226, 0.0020225424859374, -0.0014694631307312, 0.045967741935484
1227, 0.0020225424859374, -0.0014694631307312, 0.046774193548387
1228, 0.0020225424859374, -0.0014694631307312, 0.04758064516129
1229, 0.0020225424859374, -0.0014694631307312, 0.048387096774194
1230, 0.0020225424859374, -0.0014694631307312, 0.049193548387097
1231, 0.0023776412907379, -0.00077254248593737, 0.00080645161290323
1232, 0.0023776412907379, -0.00077254248593737, 0.0016129032258065
1233, 0.0023776412907379, -0.00077254248593737, 0.0024193548387097
1234, 0.0023776412907379, -0.00077254248593737, 0.0032258064516129
1235, 0.0023776412907379, -0.00077254248593737, 0.0040322580645161
1236, 0.0023776412907379, -0.00077254248593737, 0.0048387096774194
1237, 0.0023776412907379, -0.00077254248593737, 0.0056451612903226
1238, 0.0023776412907379, -0.00077254248593737, 0.0064516129032258
1239, 0.0023776412907379, -0.00077254248593737, 0.007258064516129
1240, 0.0023776412907379, -0.00077254248593737, 0.0080645161290323
1241, 0.0023776412907379, -0.00077254248593737, 0.0088709677419355
1242, 0.0023776412907379, -0.00077254248593737, 0.0096774193548387
1243, 0.0023776412907379, -0.00077254248593737, 0.010483870967742
1244, 0.0023776412907379, -0.00077254248593737, 0.011290322580645
1245, 0.0023776412907379, -0.00077254248593737, 0.012096774193548
1246, 0.0023776412907379, -0.00077254248593737, 0.012903225806452
1247, 0.0023776412907379, -0.00077254248593737, 0.013709677419355
1248, 0.0023776412907379, -0.00077254248593737, 0.014516129032258
1249, 0.0023776412907379, -0.00077254248593737, 0.015322580645161
1250, 0.0023776412907379, -0.00077254248593737, 0.016129032258065
1251, 0.0023776412907379, -0.00077254248593737, 0.016935483870968
1252, 0.0023776412907379, -0.00077254248593737, 0.017741935483871
1253, 0.0023776412907379, -0.00077254248593737, 0.018548387096774
1254, 0.0023776412907379, -0.00077254248593737, 0.019354838709677
1255, 0.0023776412907379, -0.00077254248593737, 0.020161290322581
1256, 0.0023776412907379, -0.00077254248593737, 0.020967741935484
1257, 0.0023776412907379, -0.00077254248593737, 0.021774193548387
1258, 0.0023776412907379, -0.00077254248593737, 0.02258064516129
1259, 0.0023776412907379, -0.00077254248593737, 0.023387096774194
1260, 0.0023776412907379, -0.00077254248593737, 0.024193548387097
1261, 0.0023776412907379, -0.00077254248593737, 0.025
1262, 0.0023776412907379, -0.00077254248593737, 0.025806451612903
1263, 0.0023776412907379, -0.00077254248593737, 0.026612903225806
1264, 0.0023776412907379, -0.00077254248593737, 0.02741935483871
1265, 0.0023776412907379, -0.00077254248593737, 0.028225806451613
1266, 0.0023776412907379, -0.00077254248593737, 0.029032258064516
1267, 0.0023776412907379, -0.00077254248593737, 0.029838709677419
1268, 0.0023776412907379, -0.00077254248593737, 0.030645161290323
1269, 0.0023776412907379, -0.00077254248593737, 0.031451612903226
1270, 0.0023776412907379, -0.00077254248593737, 0.032258064516129
1271, 0.0023776412907379, -0.00077254248593737, 0.033064516129032
1272, 0.0023776412907379, -0.00077254248593737, 0.033870967741935
1273, 0.0023776412907379, -0.00077254248593737, 0.034677419354839
1274, 0.0023776412907379, -0.00077254248593737, 0.035483870967742
1275, 0.0023776412907379, -0.00077254248593737, 0.036290322580645
1276, 0.0023776412907379, -0.00077254248593737, 0.037096774193548
1277, 0.0023776412907379, -0.00077254248593737, 0.037903225806452
1278, 0.0023776412907379, -0.00077254248593737, 0.038709677419355
1279, 0.0023776412907379, -0.00077254248593737, 0.039516129032258
1280, 0.0023776412907379, -0.00077254248593737, 0.040322580645161
1281, 0.0023776412907379, -0.00077254248593737, 0.041129032258065
1282, 0.0023776412907379, -0.00077254248593737, 0.041935483870968
1283, 0.0023776412907379, -0.00077254248593737, 0.042741935483871
1284, 0.0023776412907379, -0.00077254248593737, 0.043548387096774
1285, 0.0023776412907379, -0.00077254248593737, 0.044354838709677
1286, 0.0023776412907379, -0.00077254248593737, 0.045161290322581
1287, 0.0023776412907379, -0.00077254248593737, 0.045967741935484
1288, 0.0023776412907379, -0.00077254248593737, 0.046774193548387
1289, 0.0023776412907379, -0.00077254248593737, 0.04758064516129
1290, 0.0023776412907379, -0.00077254248593737, 0.048387096774194
1291, 0.0023776412907379, -0.00077254248593737, 0.049193548387097
1292, -0.00078719630170729, -0.00022810508102165, 0.05
1293, 0.0011293716550545, 0.00037130670895118, 0.05
1294, 0.00046372837184537, -0.00091724602738991, 0.05
1295, -0.00022864277231968, 0.00094426523712017, 0.05
1296, -0.00079636200015711, -0.0012297213321081, 0.05
1297, -0.00016339963695251, -0.00045458885048028, 0.05
1298, -0.00022905835265769, -0.0011572696605431, 0.05
1299, -0.00086088434945381, -0.00074044162783251, 0.05
1300, -0.00040070467279907, -0.00078366570214525, 0.05
1301, 0.0017632655597215, 0.00013831368488945, 0.05
1302, 0.0014977439024983, 0.00092384917526498, 0.05
1303, 0.0018800328381069, 0.00061199986993123, 0.05
1304, -0.0013780795820541, -0.0012932234757415, 0.05
1305, -0.00073110233991449, -0.0017544299707573, 0.05
1306, -0.0011942088463861, -0.0016906321797683, 0.05
1307, 0.00058736777354453, -0.0016718933763205, 0.05
1308, 0.0012924565922348, -0.0011381735269053, 0.05
1309, 0.0011060596417068, -0.0016018640324138, 0.05
1310, -0.0015515095574739, -9.9112575456709e-05, 0.05
1311, -0.0010515175331228, 0.0011919622665488, 0.05
1312, -0.00056780710558148, 0.00033230596524846, 0.05
1313, -0.0013867189547353, 0.00054920584036524, 0.05
1314, 0.00048849174837993, 0.00066548813235549, 0.05
1315, 0.00022420628866771, 0.0016043471649007, 0.05
1316, 0.00092031942355379, 0.0012990597720882, 0.05
1317, 0.00082604997442798, -0.00022879666348586, 0.05
1318, 0.0015512581011685, -0.00050116931522006, 0.05
1319, 0.00014423611252538, 6.7003782260672e-05, 0.05
1320, -0.0015365137626698, -0.0007271447603704, 0.05
1321, -8.8811030563971e-05, -0.0017534794812777, 0.05
1322, -0.00057041622783923, 0.0018169104355305, 0.05
1323, -0.00078719630170729, -0.00022810508102165, 0.00080645161290323
1324, -0.00078719630170729, -0.00022810508102165, 0.0016129032258065
1325, -0.00078719630170729, -0.00022810508102165, 0.0024193548387097
1326, -0.00078719630170729, -0.00022810508102165, 0.0032258064516129
1327, -0.00078719630170729, -0.00022810508102165, 0.0040322580645161
1328, -0.00078719630170729, -0.00022810508102165, 0.0048387096774194
1329, -0.00078719630170729, -0.00022810508102165, 0.0056451612903226
1330, -0.00078719630170729, -0.00022810508102165, 0.0064516129032258
1331, -0.00078719630170729, -0.00022810508102165, 0.007258064516129
1332, -0.00078719630170729, -0.00022810508102165, 0.0080645161290323
1333, -0.00078719630170729, -0.00022810508102165, 0.0088709677419355
1334, -0.00078719630170729, -0.00022810508102165, 0.0096774193548387
1335, -0.00078719630170729, -0.00022810508102165, 0.010483870967742
1336, -0.00078719630170729, -0.00022810508102165, 0.011290322580645
1337, -0.00078719630170729, -0.00022810508102165, 0.012096774193548
1338, -0.00078719630170729, -0.00022810508102165, 0.012903225806452
1339, -0.00078719630170729, -0.00022810508102165, 0.013709677419355
1340, -0.00078719630170729, -0.00022810508102165, 0.014516129032258
1341, -0.00078719630170729, -0.00022810508102165, 0.015322580645161
1342, -0.00078719630170729, -0.00022810508102165, 0.016129032258065
1343, -0.00078719630170729, -0.00022810508102165, 0.016935483870968
1344, -0.00078719630170729, -0.00022810508102165, 0.017741935483871
1345, -0.00078719630170729, -0.00022810508102165, 0.018548387096774
1346, -0.00078719630170729, -0.00022810508102165, 0.019354838709677
1347, -0.00078719630170729, -0.00022810508102165, 0.020161290322581
1348, -0.00078719630170729, -0.00022810508102165, 0.020967741935484
1349, -0.00078719630170729, -0.00022810508102165, 0.021774193548387
1350, -0.00078719630170729, -0.00022810508102165, 0.02258064516129
1351, -0.00078719630170729, -0.00022810508102165, 0.023387096774194
1352, -0.00078719630170729, -0.00022810508102165, 0.024193548387097
1353, -0.00078719630170729, -0.00022810508102165, 0.025
1354, -0.00078719630170729, -0.00022810508102165, 0.025806451612903
1355, -0.00078719630170729, -0.00022810508102165, 0.026612903225806
1356, -0.00078719630170729, -0.00022810508102165, 0.02741935483871
1357, -0.00078719630170729, -0.00022810508102165, 0.028225806451613
1358, -0.00078719630170729, -0.00022810508102165, 0.029032258064516
1359, -0.00078719630170729, -0.00022810508102165, 0.029838709677419
1360, -0.00078719630170729, -0.00022810508102165, 0.030645161290323
1361, -0.00078719630170729, -0.00022810508102165, 0.031451612903226
1362, -0.00078719630170729, -0.00022810508102165, 0.032258064516129
1363, -0.00078719630170729, -0.00022810508102165, 0.033064516129032
1364, -0.00078719630170729, -0.00022810508102165, 0.033870967741935
1365, -0.00078719630170729, -0.00022810508102165, 0.034677419354839
1366, -0.00078719630170729, -0.00022810508102165, 0.035483870967742
1367, -0.00078719630170729, -0.00022810508102165, 0.036290322580645
1368, -0.00078719630170729, -0.00022810508102165, 0.037096774193548
1369, -0.00078719630170729, -0.00022810508102165, 0.037903225806452
1370, -0.00078719630170729, -0.00022810508102165, 0.038709677419355
1371, -0.00078719630170729, -0.00022810508102165, 0.039516129032258
1372, -0.00078719630170729, -0.00022810508102165, 0.040322580645161
1373, -0.00078719630170729, -0.00022810508102165, 0.041129032258065
1374, -0.00078719630170729, -0.00022810508102165, 0.041935483870968
1375, -0.00078719630170729, -0.00022810508102165, 0.042741935483871
1376, -0.00078719630170729, -0.00022810508102165, 0.043548387096774
1377, -0.00078719630170729, -0.00022810508102165, 0.044354838709677
1378, -0.00078719630170729, -0.00022810508102165, 0.045161290322581
1379, -0.00078719630170729, -0.00022810508102165, 0.045967741935484
1380, -0.00078719630170729, -0.00022810508102165, 0.046774193548387
1381, -0.00078719630170729, -0.00022810508102165, 0.04758064516129
1382, -0.00078719630170729, -0.00022810508102165, 0.048387096774194
1383, -0.00078719630170729, -0.00022810508102165, 0.049193548387097
1384, 0.0011293716550545, 0.00037130670895118, 0.00080645161290323
1385, 0.0011293716550545, 0.00037130670895118, 0.0016129032258065
1386, 0.0011293716550545, 0.00037130670895118, 0.0024193548387097
1387, 0.0011293716550545, 0.00037130670895118, 0.0032258064516129
1388, 0.0011293716550545, 0.00037130670895118, 0.0040322580645161
1389, 0.0011293716550545, 0.00037130670895118, 0.0048387096774194
1390, 0.0011293716550545, 0.00037130670895118, 0.0056451612903226
1391, 0.0011293716550545, 0.00037130670895118, 0.0064516129032258
1392, 0.0011293716550545, 0.00037130670895118, 0.007258064516129
1393, 0.0011293716550545, 0.00037130670895118, 0.0080645161290323
1394, 0.0011293716550545, 0.00037130670895118, 0.0088709677419355
1395, 0.0011293716550545, 0.00037130670895118, 0.0096774193548387
1396, 0.0011293716550545, 0.00037130670895118, 0.010483870967742
1397, 0.0011293716550545, 0.00037130670895118, 0.011290322580645
1398, 0.0011293716550545, 0.00037130670895118, 0.012096774193548
1399, 0.0011293716550545, 0.00037130670895118, 0.012903225806452
1400, 0.0011293716550545, 0.00037130670895118, 0.013709677419355
1401, 0.0011293716550545, 0.00037130670895118, 0.014516129032258
1402, 0.0011293716550545, 0.00037130670895118, 0.015322580645161
1403, 0.0011293716550545, 0.00037130670895118, 0.016129032258065
1404, 0.0011293716550545, 0.00037130670895118, 0.016935483870968
1405, 0.0011293716550545, 0.00037130670895118, 0.017741935483871
1406, 0.0011293716550545, 0.00037130670895118, 0.018548387096774
1407, 0.0011293716550545, 0.00037130670895118, 0.019354838709677
1408, 0.0011293716550545, 0.00037130670895118, 0.020161290322581
1409, 0.0011293716550545, 0.00037130670895118, 0.020967741935484
1410, 0.0011293716550545, 0.00037130670895118, 0.021774193548387
1411, 0.0011293716550545, 0.00037130670895118, 0.02258064516129
1412, 0.0011293716550545, 0.00037130670895118, 0.023387096774194
1413, 0.0011293716550545, 0.00037130670895118, 0.024193548387097
1414, 0.0011293716550545, 0.00037130670895118, 0.025
1415, 0.0011293716550545, 0.00037130670895118, 0.025806451612903
1416, 0.0011293716550545, 0.00037130670895118, 0.026612903225806
1417, 0.0011293716550545, 0.00037130670895118, 0.02741935483871
1418, 0.0011293716550545, 0.00037130670895118, 0.028225806451613
1419, 0.0011293716550545, 0.00037130670895118, 0.029032258064516
1420, 0.0011293716550545, 0.00037130670895118, 0.029838709677419
1421, 0.0011293716550545, 0.00037130670895118, 0.030645161290323
1422, 0.0011293716550545, 0.00037130670895118, 0.031451612903226
1423, 0.0011293716550545, 0.00037130670895118, 0.032258064516129
1424, 0.0011293716550545, 0.00037130670895118, 0.033064516129032
1425, 0.0011293716550545, 0.00037130670895118, 0.033870967741935
1426, 0.0011293716550545, 0.00037130670895118, 0.034677419354839
1427, 0.0011293716550545, 0.00037130670895118, 0.035483870967742
1428, 0.0011293716550545, 0.00037130670895118, 0.036290322580645
1429, 0.0011293716550545, 0.00037130670895118, 0.037096774193548
1430, 0.0011293716550545, 0.00037130670895118, 0.037903225806452
1431, 0.0011293716550545, 0.00037130670895118, 0.038709677419355
1432, 0.0011293716550545, 0.00037130670895118, 0.039516129032258
1433, 0.0011293716550545, 0.00037130670895118, 0.040322580645161
1434, 0.0011293716550545, 0.00037130670895118, 0.041129032258065
1435, 0.0011293716550545, 0.00037130670895118, 0.041935483870968
1436, 0.0011293716550545, 0.00037130670895118, 0.042741935483871
1437, 0.0011293716550545, 0.00037130670895118, 0.043548387096774
1438, 0.0011293716550545, 0.00037130670895118, 0.044354838709677
1439, 0.0011293716550545, 0.00037130670895118, 0.045161290322581
1440, 0.0011293716550545, 0.00037130670895118, 0.045967741935484
1441, 0.0011293716550545, 0.00037130670895118, 0.046774193548387
1442, 0.0011293716550545, 0.00037130670895118, 0.04758064516129
1443, 0.0011293716550545, 0.00037130670895118, 0.048387096774194
1444, 0.0011293716550545, 0.00037130670895118, 0.049193548387097
1445, 0.00046372837184537, -0.00091724602738991, 0.00080645161290323
1446, 0.00046372837184537, -0.00091724602738991, 0.0016129032258065
1447, 0.00046372837184537, -0.00091724602738991, 0.0024193548387097
1448, 0.00046372837184537, -0.00091724602738991, 0.0032258064516129
1449, 0.00046372837184537, -0.00091724602738991, 0.0040322580645161
1450, 0.00046372837184537, -0.00091724602738991, 0.0048387096774194
1451, 0.00046372837184537, -0.00091724602738991, 0.0056451612903226
1452, 0.00046372837184537, -0.00091724602738991, 0.0064516129032258
1453, 0.00046372837184537, -0.00091724602738991, 0.007258064516129
1454, 0.00046372837184537, -0.00091724602738991, 0.0080645161290323
1455, 0.00046372837184537, -0.00091724602738991, 0.0088709677419355
1456, 0.00046372837184537, -0.00091724602738991, 0.0096774193548387
1457, 0.00046372837184537, -0.00091724602738991, 0.010483870967742
1458, 0.00046372837184537, -0.00091724602738991, 0.011290322580645
1459, 0.00046372837184537, -0.00091724602738991, 0.012096774193548
1460, 0.00046372837184537, -0.00091724602738991, 0.012903225806452
1461, 0.00046372837184537, -0.00091724602738991, 0.013709677419355
1462, 0.00046372837184537, -0.00091724602738991, 0.014516129032258
1463, 0.00046372837184537, -0.00091724602738991, 0.015322580645161
1464, 0.00046372837184537, -0.00091724602738991, 0.016129032258065
1465, 0.00046372837184537, -0.00091724602738991, 0.016935483870968
1466, 0.00046372837184537, -0.00091724602738991, 0.017741935483871
1467, 0.00046372837184537, -0.00091724602738991, 0.018548387096774
1468, 0.00046372837184537, -0.00091724602738991, 0.019354838709677
1469, 0.00046372837184537, -0.00091724602738991, 0.020161290322581
1470, 0.00046372837184537, -0.00091724602738991, 0.020967741935484
1471, 0.00046372837184537, -0.00091724602738991, 0.021774193548387
1472, 0.00046372837184537, -0.00091724602738991, 0.02258064516129
1473, 0.00046372837184537, -0.00091724602738991, 0.023387096774194
1474, 0.00046372837184537, -0.00091724602738991, 0.024193548387097
1475, 0.00046372837184537, -0.00091724602738991, 0.025
1476, 0.00046372837184537, -0.00091724602738991, 0.025806451612903
1477, 0.00046372837184537, -0.00091724602738991, 0.026612903225806
1478, 0.00046372837184537, -0.00091724602738991, 0.02741935483871
1479, 0.00046372837184537, -0.00091724602738991, 0.028225806451613
1480, 0.00046372837184537, -0.00091724602738991, 0.029032258064516
1481, 0.00046372837184537, -0.00091724602738991, 0.029838709677419
1482, 0.00046372837184537, -0.00091724602738991, 0.030645161290323
1483, 0.00046372837184537, -0.00091724602738991, 0.031451612903226
1484, 0.00046372837184537, -0.00091724602738991, 0.032258064516129
1485, 0.00046372837184537, -0.00091724602738991, 0.033064516129032
1486, 0.00046372837184537, -0.00091724602738991, 0.033870967741935
1487, 0.00046372837184537, -0.00091724602738991, 0.034677419354839
1488, 0.00046372837184537, -0.00091724602738991, 0.035483870967742
1489, 0.00046372837184537, -0.00091724602738991, 0.036290322580645
1490, 0.00046372837184537, -0.00091724602738991, 0.037096774193548
1491, 0.00046372837184537, -0.00091724602738991, 0.037903225806452
1492, 0.00046372837184537, -0.00091724602738991, 0.038709677419355
1493, 0.00046372837184537, -0.00091724602738991, 0.039516129032258
1494, 0.00046372837184537, -0.00091724602738991, 0.040322580645161
1495, 0.00046372837184537, -0.00091724602738991, 0.041129032258065
1496, 0.00046372837184537, -0.00091724602738991, 0.041935483870968
1497, 0.00046372837184537, -0.00091724602738991, 0.042741935483871
1498, 0.00046372837184537, -0.00091724602738991, 0.043548387096774
1499, 0.00046372837184537, -0.00091724602738991, 0.044354838709677
1500, 0.00046372837184537, -0.00091724602738991, 0.045161290322581
1501, 0.00046372837184537, -0.00091724602738991, 0.045967741935484
1502, 0.00046372837184537, -0.00091724602738991, 0.046774193548387
1503, 0.00046372837184537, -0.00091724602738991, 0.04758064516129
1504, 0.00046372837184537, -0.00091724602738991, 0.048387096774194
1505, 0.00046372837184537, -0.00091724602738991, 0.049193548387097
1506, -0.00022864277231968, 0.00094426523712017, 0.00080645161290323
1507, -0.00022864277231968, 0.00094426523712017, 0.0016129032258065
1508, -0.00022864277231968, 0.00094426523712017, 0.0024193548387097
1509, -0.00022864277231968, 0.00094426523712017, 0.0032258064516129
1510, -0.00022864277231968, 0.00094426523712017, 0.0040322580645161
1511, -0.00022864277231968, 0.00094426523712017, 0.0048387096774194
1512, -0.00022864277231968, 0.00094426523712017, 0.0056451612903226
1513, -0.00022864277231968, 0.00094426523712017, 0.0064516129032258
1514, -0.00022864277231968, 0.00094426523712017, 0.007258064516129
1515, -0.00022864277231968, 0.00094426523712017, 0.0080645161290323
1516, -0.00022864277231968, 0.00094426523712017, 0.0088709677419355
1517, -0.00022864277231968, 0.00094426523712017, 0.0096774193548387
1518, -0.00022864277231968, 0.00094426523712017, 0.010483870967742
1519, -0.00022864277231968, 0.00094426523712017, 0.011290322580645
1520, -0.00022864277231968, 0.00094426523712017, 0.012096774193548
1521, -0.00022864277231968, 0.00094426523712017, 0.012903225806452
1522, -0.00022864277231968, 0.00094426523712017, 0.013709677419355
1523, -0.00022864277231968, 0.00094426523712017, 0.014516129032258
1524, -0.00022864277231968, 0.00094426523712017, 0.015322580645161
1525, -0.00022864277231968, 0.00094426523712017, 0.016129032258065
1526, -0.00022864277231968, 0.00094426523712017, 0.016935483870968
1527, -0.00022864277231968, 0.00094426523712017, 0.017741935483871
1528, -0.00022864277231968, 0.00094426523712017, 0.018548387096774
1529, -0.00022864277231968, 0.00094426523712017, 0.019354838709677
1530, -0.00022864277231968, 0.00094426523712017, 0.020161290322581
1531, -0.00022864277231968, 0.00094426523712017, 0.020967741935484
1532, -0.00022864277231968, 0.00094426523712017, 0.021774193548387
1533, -0.00022864277231968, 0.00094426523712017, 0.02258064516129
1534, -0.00022864277231968, 0.00094426523712017, 0.023387096774194
1535, -0.00022864277231968, 0.00094426523712017, 0.024193548387097
1536, -0.00022864277231968, 0.00094426523712017, 0.025
1537, -0.00022864277231968, 0.00094426523712017, 0.025806451612903
1538, -0.00022864277231968, 0.00094426523712017, 0.026612903225806
1539, -0.00022864277231968, 0.00094426523712017, 0.02741935483871
1540, -0.00022864277231968, 0.00094426523712017, 0.028225806451613
1541, -0.00022864277231968, 0.00094426523712017, 0.029032258064516
1542, -0.00022864277231968, 0.00094426523712017, 0.029838709677419
1543, -0.00022864277231968, 0.00094426523712017, 0.030645161290323
1544, -0.00022864277231968, 0.00094426523712017, 0.031451612903226
1545, -0.00022864277231968, 0.00094426523712017, 0.032258064516129
1546, -0.00022864277231968, 0.00094426523712017, 0.033064516129032
1547, -0.00022864277231968, 0.00094426523712017, 0.033870967741935
1548, -0.00022864277231968, 0.00094426523712017, 0.034677419354839
1549, -0.00022864277231968, 0.00094426523712017, 0.035483870967742
1550, -0.00022864277231968, 0.00094426523712017, 0.036290322580645
1551, -0.00022864277231968, 0.00094426523712017, 0.037096774193548
1552, -0.00022864277231968, 0.00094426523712017, 0.037903225806452
1553, -0.00022864277231968, 0.00094426523712017, 0.038709677419355
1554, -0.00022864277231968, 0.00094426523712017, 0.039516129032258
1555, -0.00022864277231968, 0.00094426523712017, 0.040322580645161
1556, -0.00022864277231968, 0.00094426523712017, 0.041129032258065
1557, -0.00022864277231968, 0.00094426523712017, 0.041935483870968
1558, -0.00022864277231968, 0.00094426523712017, 0.042741935483871
1559, -0.00022864277231968, 0.00094426523712017, 0.043548387096774
1560, -0.00022864277231968, 0.00094426523712017, 0.044354838709677
1561, -0.00022864277231968, 0.00094426523712017, 0.045161290322581
1562, -0.00022864277231968, 0.00094426523712017, 0.045967741935484
1563, -0.00022864277231968, 0.00094426523712017, 0.046774193548387
1564, -0.00022864277231968, 0.00094426523712017, 0.04758064516129
1565, -0.00022864277231968, 0.00094426523712017, 0.048387096774194
1566, -0.00022864277231968, 0.00094426523712017, 0.049193548387097
1567, -0.00079636200015711, -0.0012297213321081, 0.00080645161290323
1568, -0.00079636200015711, -0.0012297213321081, 0.0016129032258065
1569, -0.00079636200015711, -0.0012297213321081, 0.0024193548387097
1570, -0.00079636200015711, -0.0012297213321081, 0.0032258064516129
1571, -0.00079636200015711, -0.0012297213321081, 0.0040322580645161
1572, -0.00079636200015711, -0.0012297213321081, 0.0048387096774194
1573, -0.00079636200015711, -0.0012297213321081, 0.0056451612903226
1574, -0.00079636200015711, -0.0012297213321081, 0.0064516129032258
1575, -0.00079636200015711, -0.0012297213321081, 0.007258064516129
1576, -0.00079636200015711, -0.0012297213321081, 0.0080645161290323
1577, -0.00079636200015711, -0.0012297213321081, 0.0088709677419355
1578, -0.00079636200015711, -0.0012297213321081, 0.0096774193548387
1579, -0.00079636200015711, -0.0012297213321081, 0.010483870967742
1580, -0.00079636200015711, -0.0012297213321081, 0.011290322580645
1581, -0.00079636200015711, -0.0012297213321081, 0.012096774193548
1582, -0.00079636200015711, -0.0012297213321081, 0.012903225806452
1583, -0.00079636200015711, -0.0012297213321081, 0.013709677419355
1584, -0.00079636200015711, -0.0012297213321081, 0.014516129032258
1585, -0.00079636200015711, -0.0012297213321081, 0.015322580645161
1586, -0.00079636200015711, -0.0012297213321081, 0.016129032258065
1587, -0.00079636200015711, -0.0012297213321081, 0.016935483870968
1588, -0.00079636200015711, -0.0012297213321081, 0.017741935483871
1589, -0.00079636200015711, -0.0012297213321081, 0.018548387096774
1590, -0.00079636200015711, -0.0012297213321081, 0.019354838709677
1591, -0.00079636200015711, -0.0012297213321081, 0.020161290322581
1592, -0.00079636200015711, -0.0012297213321081, 0.020967741935484
1593, -0.00079636200015711, -0.0012297213321081, 0.021774193548387
1594, -0.00079636200015711, -0.0012297213321081, 0.02258064516129
1595, -0.00079636200015711, -0.0012297213321081, 0.023387096774194
1596, -0.00079636200015711, -0.0012297213321081, 0.024193548387097
1597, -0.00079636200015711, -0.0012297213321081, 0.025
1598, -0.00079636200015711, -0.0012297213321081, 0.025806451612903
1599, -0.00079636200015711, -0.0012297213321081, 0.026612903225806
1600, -0.00079636200015711, -0.0012297213321081, 0.02741935483871
1601, -0.00079636200015711, -0.0012297213321081, 0.028225806451613
1602, -0.00079636200015711, -0.0012297213321081, 0.029032258064516
1603, -0.00079636200015711, -0.0012297213321081, 0.029838709677419
1604, -0.00079636200015711, -0.0012297213321081, 0.030645161290323
1605, -0.00079636200015711, -0.0012297213321081, 0.031451612903226
1606, -0.00079636200015711, -0.0012297213321081, 0.032258064516129
1607, -0.00079636200015711, -0.0012297213321081, 0.033064516129032
1608, -0.00079636200015711, -0.0012297213321081, 0.033870967741935
1609, -0.00079636200015711, -0.0012297213321081, 0.034677419354839
1610, -0.00079636200015711, -0.0012297213321081, 0.035483870967742
1611, -0.00079636200015711, -0.0012297213321081, 0.036290322580645
1612, -0.00079636200015711, -0.0012297213321081, 0.037096774193548
1613, -0.00079636200015711, -0.0012297213321081, 0.037903225806452
1614, -0.00079636200015711, -0.0012297213321081, 0.038709677419355
1615, -0.00079636200015711, -0.0012297213321081, 0.039516129032258
1616, -0.00079636200015711, -0.0012297213321081, 0.040322580645161
1617, -0.00079636200015711, -0.0012297213321081, 0.041129032258065
1618, -0.00079636200015711, -0.0012297213321081, 0.041935483870968
1619, -0.00079636200015711, -0.0012297213321081, 0.042741935483871
1620, -0.00079636200015711, -0.0012297213321081, 0.043548387096774
1621, -0.00079636200015711, -0.0012297213321081, 0.044354838709677
1622, -0.00079636200015711, -0.0012297213321081, 0.045161290322581
1623, -0.00079636200015711, -0.0012297213321081, 0.045967741935484
1624, -0.00079636200015711, -0.0012297213321081, 0.046774193548387
1625, -0.00079636200015711, -0.0012297213321081, 0.04758064516129
1626, -0.00079636200015711, -0.0012297213321081, 0.048387096774194
1627, -0.00079636200015711, -0.0012297213321081, 0.049193548387097
1628, -0.00016339963695251, -0.00045458885048028, 0.00080645161290323
1629, -0.00016339963695251, -0.00045458885048028, 0.0016129032258065
1630, -0.00016339963695251, -0.00045458885048028, 0.0024193548387097
1631, -0.00016339963695251, -0.00045458885048028, 0.0032258064516129
1632, -0.00016339963695251, -0.00045458885048028, 0.0040322580645161
1633, -0.00016339963695251, -0.00045458885048028, 0.0048387096774194
1634, -0.00016339963695251, -0.00045458885048028, 0.0056451612903226
1635, -0.00016339963695251, -0.00045458885048028, 0.0064516129032258
1636, -0.00016339963695251, -0.00045458885048028, 0.007258064516129
1637, -0.00016339963695251, -0.00045458885048028, 0.0080645161290323
1638, -0.00016339963695251, -0.00045458885048028, 0.0088709677419355
1639, -0.00016339963695251, -0.00045458885048028, 0.0096774193548387
1640, -0.00016339963695251, -0.00045458885048028, 0.010483870967742
1641, -0.00016339963695251, -0.00045458885048028, 0.011290322580645
1642, -0.00016339963695251, -0.00045458885048028, 0.012096774193548
1643, -0.00016339963695251, -0.00045458885048028, 0.012903225806452
1644, -0.00016339963695251, -0.00045458885048028, 0.013709677419355
1645, -0.00016339963695251, -0.00045458885048028, 0.014516129032258
1646, -0.00016339963695251, -0.00045458885048028, 0.015322580645161
1647, -0.00016339963695251, -0.00045458885048028, 0.016129032258065
1648, -0.00016339963695251, -0.00045458885048028, 0.016935483870968
1649, -0.00016339963695251, -0.00045458885048028, 0.017741935483871
1650, -0.00016339963695251, -0.00045458885048028, 0.018548387096774
1651, -0.00016339963695251, -0.00045458885048028, 0.019354838709677
1652, -0.00016339963695251, -0.00045458885048028, 0.020161290322581
1653, -0.00016339963695251, -0.00045458885048028, 0.020967741935484
1654, -0.00016339963695251, -0.00045458885048028, 0.021774193548387
1655, -0.00016339963695251, -0.00045458885048028, 0.02258064516129
1656, -0.00016339963695251, -0.00045458885048028, 0.023387096774194
1657, -0.00016339963695251, -0.00045458885048028, 0.024193548387097
1658, -0.00016339963695251, -0.00045458885048028, 0.025
1659, -0.00016339963695251, -0.00045458885048028, 0.025806451612903
1660, -0.00016339963695251, -0.00045458885048028, 0.026612903225806
1661, -0.00016339963695251, -0.00045458885048028, 0.02741935483871
1662, -0.00016339963695251, -0.00045458885048028, 0.028225806451613
1663, -0.00016339963695251, -0.00045458885048028, 0.029032258064516
1664, -0.00016339963695251, -0.00045458885048028, 0.029838709677419
1665, -0.00016339963695251, -0.00045458885048028, 0.030645161290323
1666, -0.00016339963695251, -0.00045458885048028, 0.031451612903226
1667, -0.00016339963695251, -0.00045458885048028, 0.032258064516129
1668, -0.00016339963695251, -0.00045458885048028, 0.033064516129032
1669, -0.00016339963695251, -0.00045458885048028, 0.033870967741935
1670, -0.00016339963695251, -0.00045458885048028, 0.034677419354839
1671, -0.00016339963695251, -0.00045458885048028, 0.035483870967742
1672, -0.00016339963695251, -0.00045458885048028, 0.036290322580645
1673, -0.00016339963695251, -0.00045458885048028, 0.037096774193548
1674, -0.00016339963695251, -0.00045458885048028, 0.037903225806452
1675, -0.00016339963695251, -0.00045458885048028, 0.038709677419355
1676, -0.00016339963695251, -0.00045458885048028, 0.039516129032258
1677, -0.00016339963695251, -0.00045458885048028, 0.040322580645161
1678, -0.00016339963695251, -0.00045458885048028, 0.041129032258065
1679, -0.00016339963695251, -0.00045458885048028, 0.041935483870968
1680, -0.00016339963695251, -0.00045458885048028, 0.042741935483871
1681, -0.00016339963695251, -0.00045458885048028, 0.043548387096774
1682, -0.00016339963695251, -0.00045458885048028, 0.044354838709677
1683, -0.00016339963695251, -0.00045458885048028, 0.045161290322581
1684, -0.00016339963695251, -0.00045458885048028, 0.045967741935484
1685, -0.00016339963695251, -0.00045458885048028, 0.046774193548387
1686, -0.00016339963695251, -0.00045458885048028, 0.04758064516129
1687, -0.00016339963695251, -0.00045458885048028, 0.048387096774194
1688, -0.00016339963695251, -0.00045458885048028, 0.049193548387097
1689, -0.00022905835265769, -0.0011572696605431, 0.00080645161290323
1690, -0.00022905835265769, -0.0011572696605431, 0.0016129032258065
1691, -0.00022905835265769, -0.0011572696605431, 0.0024193548387097
1692, -0.00022905835265769, -0.0011572696605431, 0.0032258064516129
1693, -0.00022905835265769, -0.0011572696605431, 0.0040322580645161
1694, -0.00022905835265769, -0.0011572696605431, 0.0048387096774194
1695, -0.00022905835265769, -0.0011572696605431, 0.0056451612903226
1696, -0.00022905835265769, -0.0011572696605431, 0.0064516129032258
1697, -0.00022905835265769, -0.0011572696605431, 0.007258064516129
1698, -0.00022905835265769, -0.0011572696605431, 0.0080645161290323
1699, -0.00022905835265769, -0.0011572696605431, 0.0088709677419355
1700, -0.00022905835265769, -0.0011572696605431, 0.0096774193548387
1701, -0.00022905835265769, -0.0011572696605431, 0.010483870967742
1702, -0.00022905835265769, -0.0011572696605431, 0.011290322580645
1703, -0.00022905835265769, -0.0011572696605431, 0.012096774193548
1704, -0.00022905835265769, -0.0011572696605431, 0.012903225806452
1705, -0.00022905835265769, -0.0011572696605431, 0.013709677419355
1706, -0.00022905835265769, -0.0011572696605431, 0.014516129032258
1707, -0.00022905835265769, -0.0011572696605431, 0.015322580645161
1708, -0.00022905835265769, -0.0011572696605431, 0.016129032258065
1709, -0.00022905835265769, -0.0011572696605431, 0.016935483870968
1710, -0.00022905835265769, -0.0011572696605431, 0.017741935483871
1711, -0.00022905835265769, -0.0011572696605431, 0.018548387096774
1712, -0.00022905835265769, -0.0011572696605431, 0.019354838709677
1713, -0.00022905835265769, -0.0011572696605431, 0.020161290322581
1714, -0.00022905835265769, -0.0011572696605431, 0.020967741935484
1715, -0.00022905835265769, -0.0011572696605431, 0.021774193548387
1716, -0.00022905835265769, -0.0011572696605431, 0.02258064516129
1717, -0.00022905835265769, -0.0011572696605431, 0.023387096774194
1718, -0.00022905835265769, -0.0011572696605431, 0.024193548387097
1719, -0.00022905835265769, -0.0011572696605431, 0.025
1720, -0.00022905835265769, -0.0011572696605431, 0.025806451612903
1721, -0.00022905835265769, -0.0011572696605431, 0.026612903225806
1722, -0.00022905835265769, -0.0011572696605431, 0.02741935483871
1723, -0.00022905835265769, -0.0011572696605431, 0.028225806451613
1724, -0.00022905835265769, -0.0011572696605431, 0.029032258064516
1725, -0.00022905835265769, -0.0011572696605431, 0.029838709677419
1726, -0.00022905835265769, -0.0011572696605431, 0.030645161290323
1727, -0.00022905835265769, -0.0011572696605431, 0.031451612903226
1728, -0.00022905835265769, -0.0011572696605431, 0.032258064516129
1729, -0.00022905835265769, -0.0011572696605431, 0.033064516129032
1730, -0.00022905835265769, -0.0011572696605431, 0.033870967741935
1731, -0.00022905835265769, -0.0011572696605431, 0.034677419354839
1732, -0.00022905835265769, -0.0011572696605431, 0.035483870967742
1733, -0.00022905835265769, -0.0011572696605431, 0.036290322580645
1734, -0.00022905835265769, -0.0011572696605431, 0.037096774193548
1735, -0.00022905835265769, -0.0011572696605431, 0.037903225806452
1736, -0.00022905835265769, -0.0011572696605431, 0.038709677419355
1737, -0.00022905835265769, -0.0011572696605431, 0.039516129032258
1738, -0.00022905835265769, -0.0011572696605431, 0.040322580645161
1739, -0.00022905835265769, -0.0011572696605431, 0.041129032258065
1740, -0.00022905835265769, -0.0011572696605431, 0.041935483870968
1741, -0.00022905835265769, -0.0011572696605431, 0.042741935483871
1742, -0.00022905835265769, -0.0011572696605431, 0.043548387096774
1743, -0.00022905835265769, -0.0011572696605431, 0.044354838709677
1744, -0.00022905835265769, -0.0011572696605431, 0.045161290322581
1745, -0.00022905835265769, -0.0011572696605431, 0.045967741935484
1746, -0.00022905835265769, -0.0011572696605431, 0.046774193548387
1747, -0.00022905835265769, -0.0011572696605431, 0.04758064516129
1748, -0.00022905835265769, -0.0011572696605431, 0.048387096774194
1749, -0.00022905835265769, -0.0011572696605431, 0.049193548387097
1750, -0.00086088434945381, -0.00074044162783251, 0.00080645161290323
1751, -0.00086088434945381, -0.00074044162783251, 0.0016129032258065
1752, -0.00086088434945381, -0.00074044162783251, 0.0024193548387097
1753, -0.00086088434945381, -0.00074044162783251, 0.0032258064516129
1754, -0.00086088434945381, -0.00074044162783251, 0.0040322580645161
1755, -0.00086088434945381, -0.00074044162783251, 0.0048387096774194
1756, -0.00086088434945381, -0.00074044162783251, 0.0056451612903226
1757, -0.00086088434945381, -0.00074044162783251, 0.0064516129032258
1758, -0.00086088434945381, -0.00074044162783251, 0.007258064516129
1759, -0.00086088434945381, -0.00074044162783251, 0.0080645161290323
1760, -0.00086088434945381, -0.00074044162783251, 0.0088709677419355
1761, -0.00086088434945381, -0.00074044162783251, 0.0096774193548387
1762, -0.00086088434945381, -0.00074044162783251, 0.010483870967742
1763, -0.00086088434945381, -0.00074044162783251, 0.011290322580645
1764, -0.00086088434945381, -0.00074044162783251, 0.012096774193548
1765, -0.00086088434945381, -0.00074044162783251, 0.012903225806452
1766, -0.00086088434945381, -0.00074044162783251, 0.013709677419355
1767, -0.00086088434945381, -0.00074044162783251, 0.014516129032258
1768, -0.00086088434945381, -0.00074044162783251, 0.015322580645161
1769, -0.00086088434945381, -0.00074044162783251, 0.016129032258065
1770, -0.00086088434945381, -0.00074044162783251, 0.016935483870968
1771, -0.00086088434945381, -0.00074044162783251, 0.017741935483871
1772, -0.00086088434945381, -0.00074044162783251, 0.018548387096774
1773, -0.00086088434945381, -0.00074044162783251, 0.019354838709677
1774, -0.00086088434945381, -0.00074044162783251, 0.020161290322581
1775, -0.00086088434945381, -0.00074044162783251, 0.020967741935484
1776, -0.00086088434945381, -0.00074044162783251, 0.021774193548387
1777, -0.00086088434945381, -0.00074044162783251, 0.02258064516129
1778, -0.00086088434945381, -0.00074044162783251, 0.023387096774194
1779, -0.00086088434945381, -0.00074044162783251, 0.024193548387097
1780, -0.00086088434945381, -0.00074044162783251, 0.025
1781, -0.00086088434945381, -0.00074044162783251, 0.025806451612903
1782, -0.00086088434945381, -0.00074044162783251, 0.026612903225806
1783, -0.00086088434945381, -0.00074044162783251, 0.02741935483871
1784, -0.00086088434945381, -0.00074044162783251, 0.028225806451613
1785, -0.00086088434945381, -0.00074044162783251, 0.029032258064516
1786, -0.00086088434945381, -0.00074044162783251, 0.029838709677419
1787, -0.00086088434945381, -0.00074044162783251, 0.030645161290323
1788, -0.00086088434945381, -0.00074044162783251, 0.031451612903226
1789, -0.00086088434945381, -0.00074044162783251, 0.032258064516129
1790, -0.00086088434945381, -0.00074044162783251, 0.033064516129032
1791, -0.00086088434945381, -0.00074044162783251, 0.033870967741935
1792, -0.00086088434945381, -0.00074044162783251, 0.034677419354839
1793, -0.00086088434945381, -0.00074044162783251, 0.035483870967742
1794, -0.00086088434945381, -0.00074044162783251, 0.036290322580645
1795, -0.00086088434945381, -0.00074044162783251, 0.037096774193548
1796, -0.00086088434945381, -0.00074044162783251, 0.037903225806452
1797, -0.00086088434945381, -0.00074044162783251, 0.038709677419355
1798, -0.00086088434945381, -0.00074044162783251, 0.039516129032258
1799, -0.00086088434945381, -0.00074044162783251, 0.040322580645161
1800, -0.00086088434945381, -0.00074044162783251, 0.041129032258065
1801, -0.00086088434945381, -0.00074044162783251, 0.041935483870968
1802, -0.00086088434945381, -0.00074044162783251, 0.042741935483871
1803, -0.00086088434945381, -0.00074044162783251, 0.043548387096774
1804, -0.00086088434945381, -0.00074044162783251, 0.044354838709677
1805, -0.00086088434945381, -0.00074044162783251, 0.045161290322581
1806, -0.00086088434945381, -0.00074044162783251, 0.045967741935484
1807, -0.00086088434945381, -0.00074044162783251, 0.046774193548387
1808, -0.00086088434945381, -0.00074044162783251, 0.04758064516129
1809, -0.00086088434945381, -0.00074044162783251, 0.048387096774194
1810, -0.00086088434945381, -0.00074044162783251, 0.049193548387097
1811, -0.00040070467279907, -0.00078366570214525, 0.00080645161290323
1812, -0.00040070467279907, -0.00078366570214525, 0.0016129032258065
1813, -0.00040070467279907, -0.00078366570214525, 0.0024193548387097
1814, -0.00040070467279907, -0.00078366570214525, 0.0032258064516129
1815, -0.00040070467279907, -0.00078366570214525, 0.0040322580645161
1816, -0.00040070467279907, -0.00078366570214525, 0.0048387096774194
1817, -0.00040070467279907, -0.00078366570214525, 0.0056451612903226
1818, -0.00040070467279907, -0.00078366570214525, 0.0064516129032258
1819, -0.00040070467279907, -0.00078366570214525, 0.007258064516129
1820, -0.00040070467279907, -0.00078366570214525, 0.0080645161290323
1821, -0.00040070467279907, -0.00078366570214525, 0.0088709677419355
1822, -0.00040070467279907, -0.00078366570214525, 0.0096774193548387
1823, -0.00040070467279907, -0.00078366570214525, 0.010483870967742
1824, -0.00040070467279907, -0.00078366570214525, 0.011290322580645
1825, -0.00040070467279907, -0.00078366570214525, 0.012096774193548
1826, -0.00040070467279907, -0.00078366570214525, 0.012903225806452
1827, -0.00040070467279907, -0.00078366570214525, 0.013709677419355
1828, -0.00040070467279907, -0.00078366570214525, 0.014516129032258
1829, -0.00040070467279907, -0.00078366570214525, 0.015322580645161
1830, -0.00040070467279907, -0.00078366570214525, 0.016129032258065
1831, -0.00040070467279907, -0.00078366570214525, 0.016935483870968
1832, -0.00040070467279907, -0.00078366570214525, 0.017741935483871
1833, -0.00040070467279907, -0.00078366570214525, 0.018548387096774
1834, -0.00040070467279907, -0.00078366570214525, 0.019354838709677
1835, -0.00040070467279907, -0.00078366570214525, 0.020161290322581
1836, -0.00040070467279907, -0.00078366570214525, 0.020967741935484
1837, -0.00040070467279907, -0.00078366570214525, 0.021774193548387
1838, -0.00040070467279907, -0.00078366570214525, 0.02258064516129
1839, -0.00040070467279907, -0.00078366570214525, 0.023387096774194
1840, -0.00040070467279907, -0.00078366570214525, 0.024193548387097
1841, -0.00040070467279907, -0.00078366570214525, 0.025
1842, -0.00040070467279907, -0.00078366570214525, 0.025806451612903
1843, -0.00040070467279907, -0.00078366570214525, 0.026612903225806
1844, -0.00040070467279907, -0.00078366570214525, 0.02741935483871
1845, -0.00040070467279907, -0.00078366570214525, 0.028225806451613
1846, -0.00040070467279907, -0.00078366570214525, 0.029032258064516
1847, -0.00040070467279907, -0.00078366570214525, 0.029838709677419
1848, -0.00040070467279907, -0.00078366570214525, 0.030645161290323
1849, -0.00040070467279907, -0.00078366570214525, 0.031451612903226
1850, -0.00040070467279907, -0.00078366570214525, 0.032258064516129
1851, -0.00040070467279907, -0.00078366570214525, 0.033064516129032
1852, -0.00040070467279907, -0.00078366570214525, 0.033870967741935
1853, -0.00040070467279907, -0.00078366570214525, 0.034677419354839
1854, -0.00040070467279907, -0.00078366570214525, 0.035483870967742
1855, -0.00040070467279907, -0.00078366570214525, 0.036290322580645
1856, -0.00040070467279907, -0.00078366570214525, 0.037096774193548
1857, -0.00040070467279907, -0.00078366570214525, 0.037903225806452
1858, -0.00040070467279907, -0.00078366570214525, 0.038709677419355
1859, -0.00040070467279907, -0.00078366570214525, 0.039516129032258
1860, -0.00040070467279907, -0.00078366570214525, 0.040322580645161
1861, -0.00040070467279907, -0.00078366570214525, 0.041129032258065
1862, -0.00040070467279907, -0.00078366570214525, 0.041935483870968
1863, -0.00040070467279907, -0.00078366570214525, 0.042741935483871
1864, -0.00040070467279907, -0.00078366570214525, 0.043548387096774
1865, -0.00040070467279907, -0.00078366570214525, 0.044354838709677
1866, -0.00040070467279907, -0.00078366570214525, 0.045161290322581
1867, -0.00040070467279907, -0.00078366570214525, 0.045967741935484
1868, -0.00040070467279907, -0.00078366570214525, 0.046774193548387
1869, -0.00040070467279907, -0.00078366570214525, 0.04758064516129
1870, -0.00040070467279907, -0.00078366570214525, 0.048387096774194
1871, -0.00040070467279907, -0.00078366570214525, 0.049193548387097
1872, 0.0017632655597215, 0.00013831368488945, 0.00080645161290323
1873, 0.0017632655597215, 0.00013831368488945, 0.0016129032258065
1874, 0.0017632655597215, 0.00013831368488945, 0.0024193548387097
1875, 0.0017632655597215, 0.00013831368488945, 0.0032258064516129
1876, 0.0017632655597215, 0.00013831368488945, 0.0040322580645161
1877, 0.0017632655597215, 0.00013831368488945, 0.0048387096774194
1878, 0.0017632655597215, 0.00013831368488945, 0.0056451612903226
1879, 0.0017632655597215, 0.00013831368488945, 0.0064516129032258
1880, 0.0017632655597215, 0.00013831368488945, 0.007258064516129
1881, 0.0017632655597215, 0.00013831368488945, 0.0080645161290323
1882, 0.0017632655597215, 0.00013831368488945, 0.0088709677419355
1883, 0.0017632655597215, 0.00013831368488945, 0.0096774193548387
1884, 0.0017632655597215, 0.00013831368488945, 0.010483870967742
1885, 0.0017632655597215, 0.00013831368488945, 0.011290322580645
1886, 0.0017632655597215, 0.00013831368488945, 0.012096774193548
1887, 0.0017632655597215, 0.00013831368488945, 0.012903225806452
1888, 0.0017632655597215, 0.00013831368488945, 0.013709677419355
1889, 0.0017632655597215, 0.00013831368488945, 0.014516129032258
1890, 0.0017632655597215, 0.00013831368488945, 0.015322580645161
1891, 0.0017632655597215, 0.00013831368488945, 0.016129032258065
1892, 0.0017632655597215, 0.00013831368488945, 0.016935483870968
1893, 0.0017632655597215, 0.00013831368488945, 0.017741935483871
1894, 0.0017632655597215, 0.00013831368488945, 0.018548387096774
1895, 0.0017632655597215, 0.00013831368488945, 0.019354838709677
1896, 0.0017632655597215, 0.00013831368488945, 0.020161290322581
1897, 0.0017632655597215, 0.00013831368488945, 0.020967741935484
1898, 0.0017632655597215, 0.00013831368488945, 0.021774193548387
1899, 0.0017632655597215, 0.00013831368488945, 0.02258064516129
1900, 0.0017632655597215, 0.00013831368488945, 0.023387096774194
1901, 0.0017632655597215, 0.00013831368488945, 0.024193548387097
1902, 0.0017632655597215, 0.00013831368488945, 0.025
1903, 0.0017632655597215, 0.00013831368488945, 0.025806451612903
1904, 0.0017632655597215, 0.00013831368488945, 0.026612903225806
1905, 0.0017632655597215, 0.00013831368488945, 0.02741935483871
1906, 0.0017632655597215, 0.00013831368488945, 0.028225806451613
1907, 0.0017632655597215, 0.00013831368488945, 0.029032258064516
1908, 0.0017632655597215, 0.00013831368488945, 0.029838709677419
1909, 0.0017632655597215, 0.00013831368488945, 0.030645161290323
1910, 0.0017632655597215, 0.00013831368488945, 0.031451612903226
1911, 0.0017632655597215, 0.00013831368488945, 0.032258064516129
1912, 0.0017632655597215, 0.00013831368488945, 0.033064516129032
1913, 0.0017632655597215, 0.00013831368488945, 0.033870967741935
1914, 0.0017632655597215, 0.00013831368488945, 0.034677419354839
1915, 0.0017632655597215, 0.00013831368488945, 0.035483870967742
1916, 0.0017632655597215, 0.00013831368488945, 0.036290322580645
1917, 0.0017632655597215, 0.00013831368488945, 0.037096774193548
1918, 0.0017632655597215, 0.00013831368488945, 0.037903225806452
1919, 0.0017632655597215, 0.00013831368488945, 0.038709677419355
1920, 0.0017632655597215, 0.00013831368488945, 0.039516129032258
1921, 0.0017632655597215, 0.00013831368488945, 0.040322580645161
1922, 0.0017632655597215, 0.00013831368488945, 0.041129032258065
1923, 0.0017632655597215, 0.00013831368488945, 0.041935483870968
1924, 0.0017632655597215, 0.00013831368488945, 0.042741935483871
1925, 0.0017632655597215, 0.00013831368488945, 0.043548387096774
1926, 0.0017632655597215, 0.00013831368488945, 0.044354838709677
1927, 0.0017632655597215, 0.00013831368488945, 0.045161290322581
1928, 0.0017632655597215, 0.00013831368488945, 0.045967741935484
1929, 0.0017632655597215, 0.00013831368488945, 0.046774193548387
1930, 0.0017632655597215, 0.00013831368488945, 0.04758064516129
1931, 0.0017632655597215, 0.00013831368488945, 0.048387096774194
1932, 0.0017632655597215, 0.00013831368488945, 0.049193548387097
1933, 0.0014977439024983, 0.00092384917526498, 0.00080645161290323
1934, 0.0014977439024983, 0.00092384917526498, 0.0016129032258065
1935, 0.0014977439024983, 0.00092384917526498, 0.0024193548387097
1936, 0.0014977439024983, 0.00092384917526498, 0.0032258064516129
1937, 0.0014977439024983, 0.00092384917526498, 0.0040322580645161
1938, 0.0014977439024983, 0.00092384917526498, 0.0048387096774194
1939, 0.0014977439024983, 0.00092384917526498, 0.0056451612903226
1940, 0.0014977439024983, 0.00092384917526498, 0.0064516129032258
1941, 0.0014977439024983, 0.00092384917526498, 0.007258064516129
1942, 0.0014977439024983, 0.00092384917526498, 0.0080645161290323
1943, 0.0014977439024983, 0.00092384917526498, 0.0088709677419355
1944, 0.0014977439024983, 0.00092384917526498, 0.0096774193548387
1945, 0.0014977439024983, 0.00092384917526498, 0.010483870967742
1946, 0.0014977439024983, 0.00092384917526498, 0.011290322580645
1947, 0.0014977439024983, 0.00092384917526498, 0.012096774193548
1948, 0.0014977439024983, 0.00092384917526498, 0.012903225806452
1949, 0.0014977439024983, 0.00092384917526498, 0.013709677419355
1950, 0.0014977439024983, 0.00092384917526498, 0.014516129032258
1951, 0.0014977439024983, 0.00092384917526498, 0.015322580645161
1952, 0.0014977439024983, 0.00092384917526498, 0.016129032258065
1953, 0.0014977439024983, 0.00092384917526498, 0.016935483870968
1954, 0.0014977439024983, 0.00092384917526498, 0.017741935483871
1955, 0.0014977439024983, 0.00092384917526498, 0.018548387096774
1956, 0.0014977439024983, 0.00092384917526498, 0.019354838709677
1957, 0.0014977439024983, 0.00092384917526498, 0.020161290322581
1958, 0.0014977439024983, 0.00092384917526498, 0.020967741935484
1959, 0.0014977439024983, 0.00092384917526498, 0.021774193548387
1960, 0.0014977439024983, 0.00092384917526498, 0.02258064516129
1961, 0.0014977439024983, 0.00092384917526498, 0.023387096774194
1962, 0.0014977439024983, 0.00092384917526498, 0.024193548387097
1963, 0.0014977439024983, 0.00092384917526498, 0.025
1964, 0.0014977439024983, 0.00092384917526498, 0.025806451612903
1965, 0.0014977439024983, 0.00092384917526498, 0.026612903225806
1966, 0.0014977439024983, 0.00092384917526498, 0.02741935483871
1967, 0.0014977439024983, 0.00092384917526498, 0.028225806451613
1968, 0.0014977439024983, 0.00092384917526498, 0.029032258064516
1969, 0.0014977439024983, 0.00092384917526498, 0.029838709677419
1970, 0.0014977439024983, 0.00092384917526498, 0.030645161290323
1971, 0.0014977439024983, 0.00092384917526498, 0.031451612903226
1972, 0.0014977439024983, 0.00092384917526498, 0.032258064516129
1973, 0.0014977439024983, 0.00092384917526498, 0.033064516129032
1974, 0.0014977439024983, 0.00092384917526498, 0.033870967741935
1975, 0.0014977439024983, 0.00092384917526498, 0.034677419354839
1976, 0.0014977439024983, 0.00092384917526498, 0.035483870967742
1977, 0.0014977439024983, 0.00092384917526498, 0.036290322580645
1978, 0.0014977439024983, 0.00092384917526498, 0.037096774193548
1979, 0.0014977439024983, 0.00092384917526498, 0.037903225806452
1980, 0.0014977439024983, 0.00092384917526498, 0.038709677419355
1981, 0.0014977439024983, 0.00092384917526498, 0.039516129032258
1982, 0.0014977439024983, 0.00092384917526498, 0.040322580645161
1983, 0.0014977439024983, 0.00092384917526498, 0.041129032258065
1984, 0.0014977439024983, 0.00092384917526498, 0.041935483870968
1985, 0.0014977439024983, 0.00092384917526498, 0.042741935483871
1986, 0.0014977439024983, 0.00092384917526498, 0.043548387096774
1987, 0.0014977439024983, 0.00092384917526498, 0.044354838709677
1988, 0.0014977439024983, 0.00092384917526498, 0.045161290322581
1989, 0.0014977439024983, 0.00092384917526498, 0.045967741935484
1990, 0.0014977439024983, 0.00092384917526498, 0.046774193548387
1991, 0.0014977439024983, 0.00092384917526498, 0.04758064516129
1992, 0.0014977439024983, 0.00092384917526498, 0.048387096774194
1993, 0.0014977439024983, 0.00092384917526498, 0.049193548387097
1994, 0.0018800328381069, 0.00061199986993123, 0.00080645161290323
1995, 0.0018800328381069, 0.00061199986993123, 0.0016129032258065
1996, 0.0018800328381069, 0.00061199986993123, 0.0024193548387097
1997, 0.0018800328381069, 0.00061199986993123, 0.0032258064516129
1998, 0.0018800328381069, 0.00061199986993123, 0.0040322580645161
1999, 0.0018800328381069, 0.00061199986993123, 0.0048387096774194
2000, 0.0018800328381069, 0.00061199986993123, 0.0056451612903226
2001, 0.0018800328381069, 0.00061199986993123, 0.0064516129032258
2002, 0.0018800328381069, 0.00061199986993123, 0.007258064516129
2003, 0.0018800328381069, 0.00061199986993123, 0.0080645161290323
2004, 0.0018800328381069, 0.00061199986993123, 0.0088709677419355
2005, 0.0018800328381069, 0.00061199986993123, 0.0096774193548387
2006, 0.0018800328381069, 0.00061199986993123, 0.010483870967742
2007, 0.0018800328381069, 0.00061199986993123, 0.011290322580645
2008, 0.0018800328381069, 0.00061199986993123, 0.012096774193548
2009, 0.0018800328381069, 0.00061199986993123, 0.012903225806452
2010, 0.0018800328381069, 0.00061199986993123, 0.013709677419355
2011, 0.0018800328381069, 0.00061199986993123, 0.014516129032258
2012, 0.0018800328381069, 0.00061199986993123, 0.015322580645161
2013, 0.0018800328381069, 0.00061199986993123, 0.016129032258065
2014, 0.0018800328381069, 0.00061199986993123, 0.016935483870968
2015, 0.0018800328381069, 0.00061199986993123, 0.017741935483871
2016, 0.0018800328381069, 0.00061199986993123, 0.018548387096774
2017, 0.0018800328381069, 0.00061199986993123, 0.019354838709677
2018, 0.0018800328381069, 0.00061199986993123, 0.020161290322581
2019, 0.0018800328381069, 0.00061199986993123, 0.020967741935484
2020, 0.0018800328381069, 0.00061199986993123, 0.021774193548387
2021, 0.0018800328381069, 0.00061199986993123, 0.02258064516129
2022, 0.0018800328381069, 0.00061199986993123, 0.023387096774194
2023, 0.0018800328381069, 0.00061199986993123, 0.024193548387097
2024, 0.0018800328381069, 0.00061199986993123, 0.025
2025, 0.0018800328381069, 0.00061199986993123, 0.025806451612903
2026, 0.0018800328381069, 0.00061199986993123, 0.026612903225806
2027, 0.0018800328381069, 0.00061199986993123, 0.02741935483871
2028, 0.0018800328381069, 0.00061199986993123, 0.028225806451613
2029, 0.0018800328381069, 0.00061199986993123, 0.029032258064516
2030, 0.0018800328381069, 0.00061199986993123, 0.029838709677419
2031, 0.0018800328381069, 0.00061199986993123, 0.030645161290323
2032, 0.0018800328381069, 0.00061199986993123, 0.031451612903226
2033, 0.0018800328381069, 0.00061199986993123, 0.032258064516129
2034, 0.0018800328381069, 0.00061199986993123, 0.033064516129032
2035, 0.0018800328381069, 0.00061199986993123, 0.033870967741935
2036, 0.0018800328381069, 0.00061199986993123, 0.034677419354839
2037, 0.0018800328381069, 0.00061199986993123, 0.035483870967742
2038, 0.0018800328381069, 0.00061199986993123, 0.036290322580645
2039, 0.0018800328381069, 0.00061199986993123, 0.037096774193548
2040, 0.0018800328381069, 0.00061199986993123, 0.037903225806452
2041, 0.0018800328381069, 0.00061199986993123, 0.038709677419355
2042, 0.0018800328381069, 0.00061199986993123, 0.039516129032258
2043, 0.0018800328381069, 0.00061199986993123, 0.040322580645161
2044, 0.0018800328381069, 0.00061199986993123, 0.041129032258065
2045, 0.0018800328381069, 0.00061199986993123, 0.041935483870968
2046, 0.0018800328381069, 0.00061199986993123, 0.042741935483871
2047, 0.0018800328381069, 0.00061199986993123, 0.043548387096774
2048, 0.0018800328381069, 0.00061199986993123, 0.044354838709677
2049, 0.0018800328381069, 0.00061199986993123, 0.045161290322581
2050, 0.0018800328381069, 0.00061199986993123, 0.045967741935484
2051, 0.0018800328381069, 0.00061199986993123, 0.046774193548387
2052, 0.0018800328381069, 0.00061199986993123, 0.04758064516129
2053, 0.0018800328381069, 0.00061199986993123, 0.048387096774194
2054, 0.0018800328381069, 0.00061199986993123, 0.049193548387097
2055, -0.0013780795820541, -0.0012932234757415, 0.00080645161290323
2056, -0.0013780795820541, -0.0012932234757415, 0.0016129032258065
2057, -0.0013780795820541, -0.0012932234757415, 0.0024193548387097
2058, -0.0013780795820541, -0.0012932234757415, 0.0032258064516129
2059, -0.0013780795820541, -0.0012932234757415, 0.0040322580645161
2060, -0.0013780795820541, -0.0012932234757415, 0.0048387096774194
2061, -0.0013780795820541, -0.0012932234757415, 0.0056451612903226
2062, -0.0013780795820541, -0.0012932234757415, 0.0064516129032258
2063, -0.0013780795820541, -0.0012932234757415, 0.007258064516129
2064, -0.0013780795820541, -0.0012932234757415, 0.0080645161290323
2065, -0.0013780795820541, -0.0012932234757415, 0.0088709677419355
2066, -0.0013780795820541, -0.0012932234757415, 0.0096774193548387
2067, -0.0013780795820541, -0.0012932234757415, 0.010483870967742
2068, -0.0013780795820541, -0.0012932234757415, 0.011290322580645
2069, -0.0013780795820541, -0.0012932234757415, 0.012096774193548
2070, -0.0013780795820541, -0.0012932234757415, 0.012903225806452
2071, -0.0013780795820541, -0.0012932234757415, 0.013709677419355
2072, -0.0013780795820541, -0.0012932234757415, 0.014516129032258
2073, -0.0013780795820541, -0.0012932234757415, 0.015322580645161
2074, -0.0013780795820541, -0.0012932234757415, 0.016129032258065
2075, -0.0013780795820541, -0.0012932234757415, 0.016935483870968
2076, -0.0013780795820541, -0.0012932234757415, 0.017741935483871
2077, -0.0013780795820541, -0.0012932234757415, 0.018548387096774
2078, -0.0013780795820541, -0.0012932234757415, 0.019354838709677
2079, -0.0013780795820541, -0.0012932234757415, 0.020161290322581
2080, -0.0013780795820541, -0.0012932234757415, 0.020967741935484
2081, -0.0013780795820541, -0.0012932234757415, 0.021774193548387
2082, -0.0013780795820541, -0.0012932234757415, 0.02258064516129
2083, -0.0013780795820541, -0.0012932234757415, 0.023387096774194
2084, -0.0013780795820541, -0.0012932234757415, 0.024193548387097
2085, -0.0013780795820541, -0.0012932234757415, 0.025
2086, -0.0013780795820541, -0.0012932234757415, 0.025806451612903
2087, -0.0013780795820541, -0.0012932234757415, 0.026612903225806
2088, -0.0013780795820541, -0.0012932234757415, 0.02741935483871
2089, -0.0013780795820541, -0.0012932234757415, 0.028225806451613
2090, -0.0013780795820541, -0.0012932234757415, 0.029032258064516
2091, -0.0013780795820541, -0.0012932234757415, 0.029838709677419
2092, -0.0013780795820541, -0.0012932234757415, 0.030645161290323
2093, -0.0013780795820541, -0.0012932234757415, 0.031451612903226
2094, -0.0013780795820541, -0.0012932234757415, 0.032258064516129
2095, -0.0013780795820541, -0.0012932234757415, 0.033064516129032
2096, -0.0013780795820541, -0.0012932234757415, 0.033870967741935
2097, -0.0013780795820541, -0.0012932234757415, 0.034677419354839
2098, -0.0013780795820541, -0.0012932234757415, 0.035483870967742
2099, -0.0013780795820541, -0.0012932234757415, 0.036290322580645
2100, -0.0013780795820541, -0.0012932234757415, 0.037096774193548
2101, -0.0013780795820541, -0.0012932234757415, 0.037903225806452
2102, -0.0013780795820541, -0.0012932234757415, 0.038709677419355
2103, -0.0013780795820541, -0.0012932234757415, 0.039516129032258
2104, -0.0013780795820541, -0.0012932234757415, 0.040322580645161
2105, -0.0013780795820541, -0.0012932234757415, 0.041129032258065
2106, -0.0013780795820541, -0.0012932234757415, 0.041935483870968
2107, -0.0013780795820541, -0.0012932234757415, 0.042741935483871
2108, -0.0013780795820541, -0.0012932234757415, 0.043548387096774
2109, -0.0013780795820541, -0.0012932234757415, 0.044354838709677
2110, -0.0013780795820541, -0.0012932234757415, 0.045161290322581
2111, -0.0013780795820541, -0.0012932234757415, 0.045967741935484
2112, -0.0013780795820541, -0.0012932234757415, 0.046774193548387
2113, -0.0013780795820541, -0.0012932234757415, 0.04758064516129
2114, -0.0013780795820541, -0.0012932234757415, 0.048387096774194
2115, -0.0013780795820541, -0.0012932234757415, 0.049193548387097
2116, -0.00073110233991449, -0.0017544299707573, 0.00080645161290323
2117, -0.00073110233991449, -0.0017544299707573, 0.0016129032258065
2118, -0.00073110233991449, -0.0017544299707573, 0.0024193548387097
2119, -0.00073110233991449, -0.0017544299707573, 0.0032258064516129
2120, -0.00073110233991449, -0.0017544299707573, 0.0040322580645161
2121, -0.00073110233991449, -0.0017544299707573, 0.0048387096774194
2122, -0.00073110233991449, -0.0017544299707573, 0.0056451612903226
2123, -0.00073110233991449, -0.0017544299707573, 0.0064516129032258
2124, -0.00073110233991449, -0.0017544299707573, 0.007258064516129
2125, -0.00073110233991449, -0.0017544299707573, 0.0080645161290323
2126, -0.00073110233991449, -0.0017544299707573, 0.0088709677419355
2127, -0.00073110233991449, -0.0017544299707573, 0.0096774193548387
2128, -0.00073110233991449, -0.0017544299707573, 0.010483870967742
2129, -0.00073110233991449, -0.0017544299707573, 0.011290322580645
2130, -0.00073110233991449, -0.0017544299707573, 0.012096774193548
2131, -0.00073110233991449, -0.0017544299707573, 0.012903225806452
2132, -0.00073110233991449, -0.0017544299707573, 0.013709677419355
2133, -0.00073110233991449, -0.0017544299707573, 0.014516129032258
2134, -0.00073110233991449, -0.0017544299707573, 0.015322580645161
2135, -0.00073110233991449, -0.0017544299707573, 0.016129032258065
2136, -0.00073110233991449, -0.0017544299707573, 0.016935483870968
2137, -0.00073110233991449, -0.0017544299707573, 0.017741935483871
2138, -0.00073110233991449, -0.0017544299707573, 0.018548387096774
2139, -0.00073110233991449, -0.0017544299707573, 0.019354838709677
2140, -0.00073110233991449, -0.0017544299707573, 0.020161290322581
2141, -0.00073110233991449, -0.0017544299707573, 0.020967741935484
2142, -0.00073110233991449, -0.0017544299707573, 0.021774193548387
2143, -0.00073110233991449, -0.0017544299707573, 0.02258064516129
2144, -0.00073110233991449, -0.0017544299707573, 0.023387096774194
2145, -0.00073110233991449, -0.0017544299707573, 0.024193548387097
2146, -0.00073110233991449, -0.0017544299707573, 0.025
2147, -0.00073110233991449, -0.0017544299707573, 0.025806451612903
2148, -0.00073110233991449, -0.0017544299707573, 0.026612903225806
2149, -0.00073110233991449, -0.0017544299707573, 0.02741935483871
2150, -0.00073110233991449, -0.0017544299707573, 0.028225806451613
2151, -0.00073110233991449, -0.0017544299707573, 0.029032258064516
2152, -0.00073110233991449, -0.0017544299707573, 0.029838709677419
2153, -0.00073110233991449, -0.0017544299707573, 0.030645161290323
2154, -0.00073110233991449, -0.0017544299707573, 0.031451612903226
2155, -0.00073110233991449, -0.0017544299707573, 0.032258064516129
2156, -0.00073110233991449, -0.0017544299707573, 0.033064516129032
2157, -0.00073110233991449, -0.0017544299707573, 0.033870967741935
2158, -0.00073110233991449, -0.0017544299707573, 0.034677419354839
2159, -0.00073110233991449, -0.0017544299707573, 0.035483870967742
2160, -0.00073110233991449, -0.0017544299707573, 0.036290322580645
2161, -0.00073110233991449, -0.0017544299707573, 0.037096774193548
2162, -0.00073110233991449, -0.0017544299707573, 0.037903225806452
2163, -0.00073110233991449, -0.0017544299707573, 0.038709677419355
2164, -0.00073110233991449, -0.0017544299707573, 0.039516129032258
2165, -0.00073110233991449, -0.0017544299707573, 0.040322580645161
2166, -0.00073110233991449, -0.0017544299707573, 0.041129032258065
2167, -0.00073110233991449, -0.0017544299707573, 0.041935483870968
2168, -0.00073110233991449, -0.0017544299707573, 0.042741935483871
2169, -0.00073110233991449, -0.0017544299707573, 0.043548387096774
2170, -0.00073110233991449, -0.0017544299707573, 0.044354838709677
2171, -0.00073110233991449, -0.0017544299707573, 0.045161290322581
2172, -0.00073110233991449, -0.0017544299707573, 0.045967741935484
2173, -0.00073110233991449, -0.0017544299707573, 0.046774193548387
2174, -0.00073110233991449, -0.0017544299707573, 0.04758064516129
2175, -0.00073110233991449, -0.0017544299707573, 0.048387096774194
2176, -0.00073110233991449, -0.0017544299707573, 0.049193548387097
2177, -0.0011942088463861, -0.0016906321797683, 0.00080645161290323
2178, -0.0011942088463861, -0.0016906321797683, 0.0016129032258065
2179, -0.0011942088463861, -0.0016906321797683, 0.0024193548387097
2180, -0.0011942088463861, -0.0016906321797683, 0.0032258064516129
2181, -0.0011942088463861, -0.0016906321797683, 0.0040322580645161
2182, -0.0011942088463861, -0.0016906321797683, 0.0048387096774194
2183, -0.0011942088463861, -0.0016906321797683, 0.0056451612903226
2184, -0.0011942088463861, -0.0016906321797683, 0.0064516129032258
2185, -0.0011942088463861, -0.0016906321797683, 0.007258064516129
2186, -0.0011942088463861, -0.0016906321797683, 0.0080645161290323
2187, -0.0011942088463861, -0.0016906321797683, 0.0088709677419355
2188, -0.0011942088463861, -0.0016906321797683, 0.0096774193548387
2189, -0.0011942088463861, -0.0016906321797683, 0.010483870967742
2190, -0.0011942088463861, -0.0016906321797683, 0.011290322580645
2191, -0.0011942088463861, -0.0016906321797683, 0.012096774193548
2192, -0.0011942088463861, -0.0016906321797683, 0.012903225806452
2193, -0.0011942088463861, -0.0016906321797683, 0.013709677419355
2194, -0.0011942088463861, -0.0016906321797683, 0.014516129032258
2195, -0.0011942088463861, -0.0016906321797683, 0.015322580645161
2196, -0.0011942088463861, -0.0016906321797683, 0.016129032258065
2197, -0.0011942088463861, -0.0016906321797683, 0.016935483870968
2198, -0.0011942088463861, -0.0016906321797683, 0.017741935483871
2199, -0.0011942088463861, -0.0016906321797683, 0.018548387096774
2200, -0.0011942088463861, -0.0016906321797683, 0.019354838709677
2201, -0.0011942088463861, -0.0016906321797683, 0.020161290322581
2202, -0.0011942088463861, -0.0016906321797683, 0.020967741935484
2203, -0.0011942088463861, -0.0016906321797683, 0.021774193548387
2204, -0.0011942088463861, -0.0016906321797683, 0.02258064516129
2205, -0.0011942088463861, -0.0016906321797683, 0.023387096774194
2206, -0.0011942088463861, -0.0016906321797683, 0.024193548387097
2207, -0.0011942088463861, -0.0016906321797683, 0.025
2208, -0.0011942088463861, -0.0016906321797683, 0.025806451612903
2209, -0.0011942088463861, -0.0016906321797683, 0.026612903225806
2210, -0.0011942088463861, -0.0016906321797683, 0.02741935483871
2211, -0.0011942088463861, -0.0016906321797683, 0.028225806451613
2212, -0.0011942088463861, -0.0016906321797683, 0.029032258064516
2213, -0.0011942088463861, -0.0016906321797683, 0.029838709677419
2214, -0.0011942088463861, -0.0016906321797683, 0.030645161290323
2215, -0.0011942088463861, -0.0016906321797683, 0.031451612903226
2216, -0.0011942088463861, -0.0016906321797683, 0.032258064516129
2217, -0.0011942088463861, -0.0016906321797683, 0.033064516129032
2218, -0.0011942088463861, -0.0016906321797683, 0.033870967741935
2219, -0.0011942088463861, -0.0016906321797683, 0.034677419354839
2220, -0.0011942088463861, -0.0016906321797683, 0.035483870967742
2221, -0.0011942088463861, -0.0016906321797683, 0.036290322580645
2222, -0.0011942088463861, -0.0016906321797683, 0.037096774193548
2223, -0.0011942088463861, -0.0016906321797683, 0.037903225806452
2224, -0.0011942088463861, -0.0016906321797683, 0.038709677419355
2225, -0.0011942088463861, -0.0016906321797683, 0.039516129032258
2226, -0.0011942088463861, -0.0016906321797683, 0.040322580645161
2227, -0.0011942088463861, -0.0016906321797683, 0.041129032258065
2228, -0.0011942088463861, -0.0016906321797683, 0.041935483870968
2229, -0.0011942088463861, -0.0016906321797683, 0.042741935483871
2230, -0.0011942088463861, -0.0016906321797683, 0.043548387096774
2231, -0.0011942088463861, -0.0016906321797683, 0.044354838709677
2232, -0.0011942088463861, -0.0016906321797683, 0.045161290322581
2233, -0.0011942088463861, -0.0016906321797683, 0.045967741935484
2234, -0.0011942088463861, -0.0016906321797683, 0.046774193548387
2235, -0.0011942088463861, -0.0016906321797683, 0.04758064516129
2236, -0.0011942088463861, -0.0016906321797683, 0.048387096774194
2237, -0.0011942088463861, -0.0016906321797683, 0.049193548387097
2238, 0.00058736777354453, -0.0016718933763205, 0.00080645161290323
2239, 0.00058736777354453, -0.0016718933763205, 0.0016129032258065
2240, 0.00058736777354453, -0.0016718933763205, 0.0024193548387097
2241, 0.00058736777354453, -0.0016718933763205, 0.0032258064516129
2242, 0.00058736777354453, -0.0016718933763205, 0.0040322580645161
2243, 0.00058736777354453, -0.0016718933763205, 0.0048387096774194
2244, 0.00058736777354453, -0.0016718933763205, 0.0056451612903226
2245, 0.00058736777354453, -0.0016718933763205, 0.0064516129032258
2246, 0.00058736777354453, -0.0016718933763205, 0.007258064516129
2247, 0.00058736777354453, -0.0016718933763205, 0.0080645161290323
2248, 0.00058736777354453, -0.0016718933763205, 0.0088709677419355
2249, 0.00058736777354453, -0.0016718933763205, 0.0096774193548387
2250, 0.00058736777354453, -0.0016718933763205, 0.010483870967742
2251, 0.00058736777354453, -0.0016718933763205, 0.011290322580645
2252, 0.00058736777354453, -0.0016718933763205, 0.012096774193548
2253, 0.00058736777354453, -0.0016718933763205, 0.012903225806452
2254, 0.00058736777354453, -0.0016718933763205, 0.013709677419355
2255, 0.00058736777354453, -0.0016718933763205, 0.014516129032258
2256, 0.00058736777354453, -0.0016718933763205, 0.015322580645161
2257, 0.00058736777354453, -0.0016718933763205, 0.016129032258065
2258, 0.00058736777354453, -0.0016718933763205, 0.016935483870968
2259, 0.00058736777354453, -0.0016718933763205, 0.017741935483871
2260, 0.00058736777354453, -0.0016718933763205, 0.018548387096774
2261, 0.00058736777354453, -0.0016718933763205, 0.019354838709677
2262, 0.00058736777354453, -0.0016718933763205, 0.020161290322581
2263, 0.00058736777354453, -0.0016718933763205, 0.020967741935484
2264, 0.00058736777354453, -0.0016718933763205, 0.021774193548387
2265, 0.00058736777354453, -0.0016718933763205, 0.02258064516129
2266, 0.00058736777354453, -0.0016718933763205, 0.023387096774194
2267, 0.00058736777354453, -0.0016718933763205, 0.024193548387097
2268, 0.00058736777354453, -0.0016718933763205, 0.025
2269, 0.00058736777354453, -0.0016718933763205, 0.025806451612903
2270, 0.00058736777354453, -0.0016718933763205, 0.026612903225806
2271, 0.00058736777354453, -0.0016718933763205, 0.02741935483871
2272, 0.00058736777354453, -0.0016718933763205, 0.028225806451613
2273, 0.00058736777354453, -0.0016718933763205, 0.029032258064516
2274, 0.00058736777354453, -0.0016718933763205, 0.029838709677419
2275, 0.00058736777354453, -0.0016718933763205, 0.030645161290323
2276, 0.00058736777354453, -0.0016718933763205, 0.031451612903226
2277, 0.00058736777354453, -0.0016718933763205, 0.032258064516129
2278, 0.00058736777354453, -0.0016718933763205, 0.033064516129032
2279, 0.00058736777354453, -0.0016718933763205, 0.033870967741935
2280, 0.00058736777354453, -0.0016718933763205, 0.034677419354839
2281, 0.00058736777354453, -0.0016718933763205, 0.035483870967742
2282, 0.00058736777354453, -0.0016718933763205, 0.036290322580645
2283, 0.00058736777354453, -0.0016718933763205, 0.037096774193548
2284, 0.00058736777354453, -0.0016718933763205, 0.037903225806452
2285, 0.00058736777354453, -0.0016718933763205, 0.038709677419355
2286, 0.00058736777354453, -0.0016718933763205, 0.039516129032258
2287, 0.00058736777354453, -0.0016718933763205, 0.040322580645161
2288, 0.00058736777354453, -0.0016718933763205, 0.041129032258065
2289, 0.00058736777354453, -0.0016718933763205, 0.041935483870968
2290, 0.00058736777354453, -0.0016718933763205, 0.042741935483871
2291, 0.00058736777354453, -0.0016718933763205, 0.043548387096774
2292, 0.00058736777354453, -0.0016718933763205, 0.044354838709677
2293, 0.00058736777354453, -0.0016718933763205, 0.045161290322581
2294, 0.00058736777354453, -0.0016718933763205, 0.045967741935484
2295, 0.00058736777354453, -0.0016718933763205, 0.046774193548387
2296, 0.00058736777354453, -0.0016718933763205, 0.04758064516129
2297, 0.00058736777354453, -0.0016718933763205, 0.048387096774194
2298, 0.00058736777354453, -0.0016718933763205, 0.049193548387097
2299, 0.0012924565922348, -0.0011381735269053, 0.00080645161290323
2300, 0.0012924565922348, -0.0011381735269053, 0.0016129032258065
2301, 0.0012924565922348, -0.0011381735269053, 0.0024193548387097
2302, 0.0012924565922348, -0.0011381735269053, 0.0032258064516129
2303, 0.0012924565922348, -0.0011381735269053, 0.0040322580645161
2304, 0.0012924565922348, -0.0011381735269053, 0.0048387096774194
2305, 0.0012924565922348, -0.0011381735269053, 0.0056451612903226
2306, 0.0012924565922348, -0.0011381735269053, 0.0064516129032258
2307, 0.0012924565922348, -0.0011381735269053, 0.007258064516129
2308, 0.0012924565922348, -0.0011381735269053, 0.0080645161290323
2309, 0.0012924565922348, -0.0011381735269053, 0.0088709677419355
2310, 0.0012924565922348, -0.0011381735269053, 0.0096774193548387
2311, 0.0012924565922348, -0.0011381735269053, 0.010483870967742
2312, 0.0012924565922348, -0.0011381735269053, 0.011290322580645
2313, 0.0012924565922348, -0.0011381735269053, 0.012096774193548
2314, 0.0012924565922348, -0.0011381735269053, 0.012903225806452
2315, 0.0012924565922348, -0.0011381735269053, 0.013709677419355
2316, 0.0012924565922348, -0.0011381735269053, 0.014516129032258
2317, 0.0012924565922348, -0.0011381735269053, 0.015322580645161
2318, 0.0012924565922348, -0.0011381735269053, 0.016129032258065
2319, 0.0012924565922348, -0.0011381735269053, 0.016935483870968
2320, 0.0012924565922348, -0.0011381735269053, 0.017741935483871
2321, 0.0012924565922348, -0.0011381735269053, 0.018548387096774
2322, 0.0012924565922348, -0.0011381735269053, 0.019354838709677
2323, 0.0012924565922348, -0.0011381735269053, 0.020161290322581
2324, 0.0012924565922348, -0.0011381735269053, 0.020967741935484
2325, 0.0012924565922348, -0.0011381735269053, 0.021774193548387
2326, 0.0012924565922348, -0.0011381735269053, 0.02258064516129
2327, 0.0012924565922348, -0.0011381735269053, 0.023387096774194
2328, 0.0012924565922348, -0.0011381735269053, 0.024193548387097
2329, 0.0012924565922348, -0.0011381735269053, 0.025
2330, 0.0012924565922348, -0.0011381735269053, 0.025806451612903
2331, 0.0012924565922348, -0.0011381735269053, 0.026612903225806
2332, 0.0012924565922348, -0.0011381735269053, 0.02741935483871
2333, 0.0012924565922348, -0.0011381735269053, 0.028225806451613
2334, 0.0012924565922348, -0.0011381735269053, 0.029032258064516
2335, 0.0012924565922348, -0.0011381735269053, 0.029838709677419
2336, 0.0012924565922348, -0.0011381735269053, 0.030645161290323
2337, 0.0012924565922348, -0.0011381735269053, 0.031451612903226
2338, 0.0012924565922348, -0.0011381735269053, 0.032258064516129
2339, 0.0012924565922348, -0.0011381735269053, 0.033064516129032
2340, 0.0012924565922348, -0.0011381735269053, 0.033870967741935
2341, 0.0012924565922348, -0.0011381735269053, 0.034677419354839
2342, 0.0012924565922348, -0.0011381735269053, 0.035483870967742
2343, 0.0012924565922348, -0.0011381735269053, 0.036290322580645
2344, 0.0012924565922348, -0.0011381735269053, 0.037096774193548
2345, 0.0012924565922348, -0.0011381735269053, 0.037903225806452
2346, 0.0012924565922348, -0.0011381735269053, 0.038709677419355
2347, 0.0012924565922348, -0.0011381735269053, 0.039516129032258
2348, 0.0012924565922348, -0.0011381735269053, 0.040322580645161
2349, 0.0012924565922348, -0.0011381735269053, 0.041129032258065
2350, 0.0012924565922348, -0.0011381735269053, 0.041935483870968
2351, 0.0012924565922348, -0.0011381735269053, 0.042741935483871
2352, 0.0012924565922348, -0.0011381735269053, 0.043548387096774
2353, 0.0012924565922348, -0.0011381735269053, 0.044354838709677
2354, 0.0012924565922348, -0.0011381735269053, 0.045161290322581
2355, 0.0012924565922348, -0.0011381735269053, 0.045967741935484
2356, 0.0012924565922348, -0.0011381735269053, 0.046774193548387
2357, 0.0012924565922348, -0.0011381735269053, 0.04758064516129
2358, 0.0012924565922348, -0.0011381735269053, 0.048387096774194
2359, 0.0012924565922348, -0.0011381735269053, 0.049193548387097
2360, 0.0011060596417068, -0.0016018640324138, 0.00080645161290323
2361, 0.0011060596417068, -0.0016018640324138, 0.0016129032258065
2362, 0.0011060596417068, -0.0016018640324138, 0.0024193548387097
2363, 0.0011060596417068, -0.0016018640324138, 0.0032258064516129
2364, 0.0011060596417068, -0.0016018640324138, 0.0040322580645161
2365, 0.0011060596417068, -0.0016018640324138, 0.0048387096774194
2366, 0.0011060596417068, -0.0016018640324138, 0.0056451612903226
2367, 0.0011060596417068, -0.0016018640324138, 0.0064516129032258
2368, 0.0011060596417068, -0.0016018640324138, 0.007258064516129
2369, 0.0011060596417068, -0.0016018640324138, 0.0080645161290323
2370, 0.0011060596417068, -0.0016018640324138, 0.0088709677419355
2371, 0.0011060596417068, -0.0016018640324138, 0.0096774193548387
2372, 0.0011060596417068, -0.0016018640324138, 0.010483870967742
2373, 0.0011060596417068, -0.0016018640324138, 0.011290322580645
2374, 0.0011060596417068, -0.0016018640324138, 0.012096774193548
2375, 0.0011060596417068, -0.0016018640324138, 0.012903225806452
2376, 0.0011060596417068, -0.0016018640324138, 0.013709677419355
2377, 0.0011060596417068, -0.0016018640324138, 0.014516129032258
2378, 0.0011060596417068, -0.0016018640324138, 0.015322580645161
2379, 0.0011060596417068, -0.0016018640324138, 0.016129032258065
2380, 0.0011060596417068, -0.0016018640324138, 0.016935483870968
2381, 0.0011060596417068, -0.0016018640324138, 0.017741935483871
2382, 0.0011060596417068, -0.0016018640324138, 0.018548387096774
2383, 0.0011060596417068, -0.0016018640324138, 0.019354838709677
2384, 0.0011060596417068, -0.0016018640324138, 0.020161290322581
2385, 0.0011060596417068, -0.0016018640324138, 0.020967741935484
2386, 0.0011060596417068, -0.0016018640324138, 0.021774193548387
2387, 0.0011060596417068, -0.0016018640324138, 0.02258064516129
2388, 0.0011060596417068, -0.0016018640324138, 0.023387096774194
2389, 0.0011060596417068, -0.0016018640324138, 0.024193548387097
2390, 0.0011060596417068, -0.0016018640324138, 0.025
2391, 0.0011060596417068, -0.0016018640324138, 0.025806451612903
2392, 0.0011060596417068, -0.0016018640324138, 0.026612903225806
2393, 0.0011060596417068, -0.0016018640324138, 0.02741935483871
2394, 0.0011060596417068, -0.0016018640324138, 0.028225806451613
2395, 0.0011060596417068, -0.0016018640324138, 0.029032258064516
2396, 0.0011060596417068, -0.0016018640324138, 0.029838709677419
2397, 0.0011060596417068, -0.0016018640324138, 0.030645161290323
2398, 0.0011060596417068, -0.0016018640324138, 0.031451612903226
2399, 0.0011060596417068, -0.0016018640324138, 0.032258064516129
2400, 0.0011060596417068, -0.0016018640324138, 0.033064516129032
2401, 0.0011060596417068, -0.0016018640324138, 0.033870967741935
2402, 0.0011060596417068, -0.0016018640324138, 0.034677419354839
2403, 0.0011060596417068, -0.0016018640324138, 0.035483870967742
2404, 0.0011060596417068, -0.0016018640324138, 0.036290322580645
2405, 0.0011060596417068, -0.0016018640324138, 0.037096774193548
2406, 0.0011060596417068, -0.0016018640324138, 0.037903225806452
2407, 0.0011060596417068, -0.0016018640324138, 0.038709677419355
2408, 0.0011060596417068, -0.0016018640324138, 0.039516129032258
2409, 0.0011060596417068, -0.0016018640324138, 0.040322580645161
2410, 0.0011060596417068, -0.0016018640324138, 0.041129032258065
2411, 0.0011060596417068, -0.0016018640324138, 0.041935483870968
2412, 0.0011060596417068, -0.0016018640324138, 0.042741935483871
2413, 0.0011060596417068, -0.0016018640324138, 0.043548387096774
2414, 0.0011060596417068, -0.0016018640324138, 0.044354838709677
2415, 0.0011060596417068, -0.0016018640324138, 0.045161290322581
2416, 0.0011060596417068, -0.0016018640324138, 0.045967741935484
2417, 0.0011060596417068, -0.0016018640324138, 0.046774193548387
2418, 0.0011060596417068, -0.0016018640324138, 0.04758064516129
2419, 0.0011060596417068, -0.0016018640324138, 0.048387096774194
2420, 0.0011060596417068, -0.0016018640324138, 0.049193548387097
2421, -0.0015515095574739, -9.9112575456709e-05, 0.00080645161290323
2422, -0.0015515095574739, -9.9112575456709e-05, 0.0016129032258065
2423, -0.0015515095574739, -9.9112575456709e-05, 0.0024193548387097
2424, -0.0015515095574739, -9.9112575456709e-05, 0.0032258064516129
2425, -0.0015515095574739, -9.9112575456709e-05, 0.0040322580645161
2426, -0.0015515095574739, -9.9112575456709e-05, 0.0048387096774194
2427, -0.0015515095574739, -9.9112575456709e-05, 0.0056451612903226
2428, -0.0015515095574739, -9.9112575456709e-05, 0.0064516129032258
2429, -0.0015515095574739, -9.9112575456709e-05, 0.007258064516129
2430, -0.0015515095574739, -9.9112575456709e-05, 0.0080645161290323
2431, -0.0015515095574739, -9.9112575456709e-05, 0.0088709677419355
2432, -0.0015515095574739, -9.9112575456709e-05, 0.0096774193548387
2433, -0.0015515095574739, -9.9112575456709e-05, 0.010483870967742
2434, -0.0015515095574739, -9.9112575456709e-05, 0.011290322580645
2435, -0.0015515095574739, -9.9112575456709e-05, 0.012096774193548
2436, -0.0015515095574739, -9.9112575456709e-05, 0.012903225806452
2437, -0.0015515095574739, -9.9112575456709e-05, 0.013709677419355
2438, -0.0015515095574739, -9.9112575456709e-05, 0.014516129032258
2439, -0.0015515095574739, -9.9112575456709e-05, 0.015322580645161
2440, -0.0015515095574739, -9.9112575456709e-05, 0.016129032258065
2441, -0.0015515095574739, -9.9112575456709e-05, 0.016935483870968
2442, -0.0015515095574739, -9.9112575456709e-05, 0.017741935483871
2443, -0.0015515095574739, -9.9112575456709e-05, 0.018548387096774
2444, -0.0015515095574739, -9.9112575456709e-05, 0.019354838709677
2445, -0.0015515095574739, -9.9112575456709e-05, 0.020161290322581
2446, -0.0015515095574739, -9.9112575456709e-05, 0.020967741935484
2447, -0.0015515095574739, -9.9112575456709e-05, 0.021774193548387
2448, -0.0015515095574739, -9.9112575456709e-05, 0.02258064516129
2449, -0.0015515095574739, -9.9112575456709e-05, 0.023387096774194
2450, -0.0015515095574739, -9.9112575456709e-05, 0.024193548387097
2451, -0.0015515095574739, -9.9112575456709e-05, 0.025
2452, -0.0015515095574739, -9.9112575456709e-05, 0.025806451612903
2453, -0.0015515095574739, -9.9112575456709e-05, 0.026612903225806
2454, -0.0015515095574739, -9.9112575456709e-05, 0.02741935483871
2455, -0.0015515095574739, -9.9112575456709e-05, 0.028225806451613
2456, -0.0015515095574739, -9.9112575456709e-05, 0.029032258064516
2457, -0.0015515095574739, -9.9112575456709e-05, 0.029838709677419
2458, -0.0015515095574739, -9.9112575456709e-05, 0.030645161290323
2459, -0.0015515095574739, -9.9112575456709e-05, 0.031451612903226
2460, -0.0015515095574739, -9.9112575456709e-05, 0.032258064516129
2461, -0.0015515095574739, -9.9112575456709e-05, 0.033064516129032
2462, -0.0015515095574739, -9.9112575456709e-05, 0.033870967741935
2463, -0.0015515095574739, -9.9112575456709e-05, 0.034677419354839
2464, -0.0015515095574739, -9.9112575456709e-05, 0.035483870967742
2465, -0.0015515095574739, -9.9112575456709e-05, 0.036290322580645
2466, -0.0015515095574739, -9.9112575456709e-05, 0.037096774193548
2467, -0.0015515095574739, -9.9112575456709e-05, 0.037903225806452
2468, -0.0015515095574739, -9.9112575456709e-05, 0.038709677419355
2469, -0.0015515095574739, -9.9112575456709e-05, 0.039516129032258
2470, -0.0015515095574739, -9.9112575456709e-05, 0.040322580645161
2471, -0.0015515095574739, -9.9112575456709e-05, 0.041129032258065
2472, -0.0015515095574739, -9.9112575456709e-05, 0.041935483870968
2473, -0.0015515095574739, -9.9112575456709e-05, 0.042741935483871
2474, -0.0015515095574739, -9.9112575456709e-05, 0.043548387096774
2475, -0.0015515095574739, -9.9112575456709e-05, 0.044354838709677
2476, -0.0015515095574739, -9.9112575456709e-05, 0.045161290322581
2477, -0.0015515095574739, -9.9112575456709e-05, 0.045967741935484
2478, -0.0015515095574739, -9.9112575456709e-05, 0.046774193548387
2479, -0.0015515095574739, -9.9112575456709e-05, 0.04758064516129
2480, -0.0015515095574739, -9.9112575456709e-05, 0.048387096774194
2481, -0.0015515095574739, -9.9112575456709e-05, 0.049193548387097
2482, -0.0010515175331228, 0.0011919622665488, 0.00080645161290323
2483, -0.0010515175331228, 0.0011919622665488, 0.0016129032258065
2484, -0.0010515175331228, 0.0011919622665488, 0.0024193548387097
2485, -0.0010515175331228, 0.0011919622665488, 0.0032258064516129
2486, -0.0010515175331228, 0.0011919622665488, 0.0040322580645161
2487, -0.0010515175331228, 0.0011919622665488, 0.0048387096774194
2488, -0.0010515175331228, 0.0011919622665488, 0.0056451612903226
2489, -0.0010515175331228, 0.0011919622665488, 0.0064516129032258
2490, -0.0010515175331228, 0.0011919622665488, 0.007258064516129
2491, -0.0010515175331228, 0.0011919622665488, 0.0080645161290323
2492, -0.0010515175331228, 0.0011919622665488, 0.0088709677419355
2493, -0.0010515175331228, 0.0011919622665488, 0.0096774193548387
2494, -0.0010515175331228, 0.0011919622665488, 0.010483870967742
2495, -0.0010515175331228, 0.0011919622665488, 0.011290322580645
2496, -0.0010515175331228, 0.0011919622665488, 0.012096774193548
2497, -0.0010515175331228, 0.0011919622665488, 0.012903225806452
2498, -0.0010515175331228, 0.0011919622665488, 0.013709677419355
2499, -0.0010515175331228, 0.0011919622665488, 0.014516129032258
2500, -0.0010515175331228, 0.0011919622665488, 0.015322580645161
2501, -0.0010515175331228, 0.0011919622665488, 0.016129032258065
2502, -0.0010515175331228, 0.0011919622665488, 0.016935483870968
2503, -0.0010515175331228, 0.0011919622665488, 0.017741935483871
2504, -0.0010515175331228, 0.0011919622665488, 0.018548387096774
2505, -0.0010515175331228, 0.0011919622665488, 0.019354838709677
2506, -0.0010515175331228, 0.0011919622665488, 0.020161290322581
2507, -0.0010515175331228, 0.0011919622665488, 0.020967741935484
2508, -0.0010515175331228, 0.0011919622665488, 0.021774193548387
2509, -0.0010515175331228, 0.0011919622665488, 0.02258064516129
2510, -0.0010515175331228, 0.0011919622665488, 0.023387096774194
2511, -0.0010515175331228, 0.0011919622665488, 0.024193548387097
2512, -0.0010515175331228, 0.0011919622665488, 0.025
2513, -0.0010515175331228, 0.0011919622665488, 0.025806451612903
2514, -0.0010515175331228, 0.0011919622665488, 0.026612903225806
2515, -0.0010515175331228, 0.0011919622665488, 0.02741935483871
2516, -0.0010515175331228, 0.0011919622665488, 0.028225806451613
2517, -0.0010515175331228, 0.0011919622665488, 0.029032258064516
2518, -0.0010515175331228, 0.0011919622665488, 0.029838709677419
2519, -0.0010515175331228, 0.0011919622665488, 0.030645161290323
2520, -0.0010515175331228, 0.0011919622665488, 0.031451612903226
2521, -0.0010515175331228, 0.0011919622665488, 0.032258064516129
2522, -0.0010515175331228, 0.0011919622665488, 0.033064516129032
2523, -0.0010515175331228, 0.0011919622665488, 0.033870967741935
2524, -0.0010515175331228, 0.0011919622665488, 0.034677419354839
2525, -0.0010515175331228, 0.0011919622665488, 0.035483870967742
2526, -0.0010515175331228, 0.0011919622665488, 0.036290322580645
2527, -0.0010515175331228, 0.0011919622665488, 0.037096774193548
2528, -0.0010515175331228, 0.0011919622665488, 0.037903225806452
2529, -0.0010515175331228, 0.0011919622665488, 0.038709677419355
2530, -0.0010515175331228, 0.0011919622665488, 0.039516129032258
2531, -0.0010515175331228, 0.0011919622665488, 0.040322580645161
2532, -0.0010515175331228, 0.0011919622665488, 0.041129032258065
2533, -0.0010515175331228, 0.0011919622665488, 0.041935483870968
2534, -0.0010515175331228, 0.0011919622665488, 0.042741935483871
2535, -0.0010515175331228, 0.0011919622665488, 0.043548387096774
2536, -0.0010515175331228, 0.0011919622665488, 0.044354838709677
2537, -0.0010515175331228, 0.0011919622665488, 0.045161290322581
2538, -0.0010515175331228, 0.0011919622665488, 0.045967741935484
2539, -0.0010515175331228, 0.0011919622665488, 0.046774193548387
2540, -0.0010515175331228, 0.0011919622665488, 0.04758064516129
2541, -0.0010515175331228, 0.0011919622665488, 0.048387096774194
2542, -0.0010515175331228, 0.0011919622665488, 0.049193548387097
2543, -0.00056780710558148, 0.00033230596524846, 0.00080645161290323
2544, -0.00056780710558148, 0.00033230596524846, 0.0016129032258065
2545, -0.00056780710558148, 0.00033230596524846, 0.0024193548387097
2546, -0.00056780710558148, 0.00033230596524846, 0.0032258064516129
2547, -0.00056780710558148, 0.00033230596524846, 0.0040322580645161
2548, -0.00056780710558148, 0.00033230596524846, 0.0048387096774194
2549, -0.00056780710558148, 0.00033230596524846, 0.0056451612903226
2550, -0.00056780710558148, 0.00033230596524846, 0.0064516129032258
2551, -0.00056780710558148, 0.00033230596524846, 0.007258064516129
2552, -0.00056780710558148, 0.00033230596524846, 0.0080645161290323
2553, -0.00056780710558148, 0.00033230596524846, 0.0088709677419355
2554, -0.00056780710558148, 0.00033230596524846, 0.0096774193548387
2555, -0.00056780710558148, 0.00033230596524846, 0.010483870967742
2556, -0.00056780710558148, 0.00033230596524846, 0.011290322580645
2557, -0.00056780710558148, 0.00033230596524846, 0.012096774193548
2558, -0.00056780710558148, 0.00033230596524846, 0.012903225806452
2559, -0.00056780710558148, 0.00033230596524846, 0.013709677419355
2560, -0.00056780710558148, 0.00033230596524846, 0.014516129032258
2561, -0.00056780710558148, 0.00033230596524846, 0.015322580645161
2562, -0.00056780710558148, 0.00033230596524846, 0.016129032258065
2563, -0.00056780710558148, 0.00033230596524846, 0.016935483870968
2564, -0.00056780710558148, 0.00033230596524846, 0.017741935483871
2565, -0.00056780710558148, 0.00033230596524846, 0.018548387096774
2566, -0.00056780710558148, 0.00033230596524846, 0.019354838709677
2567, -0.00056780710558148, 0.00033230596524846, 0.020161290322581
2568, -0.00056780710558148, 0.00033230596524846, 0.020967741935484
2569, -0.00056780710558148, 0.00033230596524846, 0.021774193548387
2570, -0.00056780710558148, 0.00033230596524846, 0.02258064516129
2571, -0.00056780710558148, 0.00033230596524846, 0.023387096774194
2572, -0.00056780710558148, 0.00033230596524846, 0.024193548387097
2573, -0.00056780710558148, 0.00033230596524846, 0.025
2574, -0.00056780710558148, 0.00033230596524846, 0.025806451612903
2575, -0.00056780710558148, 0.00033230596524846, 0.026612903225806
2576, -0.00056780710558148, 0.00033230596524846, 0.02741935483871
2577, -0.00056780710558148, 0.00033230596524846, 0.028225806451613
2578, -0.00056780710558148, 0.00033230596524846, 0.029032258064516
2579, -0.00056780710558148, 0.00033230596524846, 0.029838709677419
2580, -0.00056780710558148, 0.00033230596524846, 0.030645161290323
2581, -0.00056780710558148, 0.00033230596524846, 0.031451612903226
2582, -0.00056780710558148, 0.00033230596524846, 0.032258064516129
2583, -0.00056780710558148, 0.00033230596524846, 0.033064516129032
2584, -0.00056780710558148, 0.00033230596524846, 0.033870967741935
2585, -0.00056780710558148, 0.00033230596524846, 0.034677419354839
2586, -0.00056780710558148, 0.00033230596524846, 0.035483870967742
2587, -0.00056780710558148, 0.00033230596524846, 0.036290322580645
2588, -0.00056780710558148, 0.00033230596524846, 0.037096774193548
2589, -0.00056780710558148, 0.00033230596524846, 0.037903225806452
2590, -0.00056780710558148, 0.00033230596524846, 0.038709677419355
2591, -0.00056780710558148, 0.00033230596524846, 0.039516129032258
2592, -0.00056780710558148, 0.00033230596524846, 0.040322580645161
2593, -0.00056780710558148, 0.00033230596524846, 0.041129032258065
2594, -0.00056780710558148, 0.00033230596524846, 0.041935483870968
2595, -0.00056780710558148, 0.00033230596524846, 0.042741935483871
2596, -0.00056780710558148, 0.00033230596524846, 0.043548387096774
2597, -0.00056780710558148, 0.00033230596524846, 0.044354838709677
2598, -0.00056780710558148, 0.00033230596524846, 0.045161290322581
2599, -0.00056780710558148, 0.00033230596524846, 0.045967741935484
2600, -0.00056780710558148, 0.00033230596524846, 0.046774193548387
2601, -0.00056780710558148, 0.00033230596524846, 0.04758064516129
2602, -0.00056780710558148, 0.00033230596524846, 0.048387096774194
2603, -0.00056780710558148, 0.00033230596524846, 0.049193548387097
2604, -0.0013867189547353, 0.00054920584036524, 0.00080645161290323
2605, -0.0013867189547353, 0.00054920584036524, 0.0016129032258065
2606, -0.0013867189547353, 0.00054920584036524, 0.0024193548387097
2607, -0.0013867189547353, 0.00054920584036524, 0.0032258064516129
2608, -0.0013867189547353, 0.00054920584036524, 0.0040322580645161
2609, -0.0013867189547353, 0.00054920584036524, 0.0048387096774194
2610, -0.0013867189547353, 0.00054920584036524, 0.0056451612903226
2611, -0.0013867189547353, 0.00054920584036524, 0.0064516129032258
2612, -0.0013867189547353, 0.00054920584036524, 0.007258064516129
2613, -0.0013867189547353, 0.00054920584036524, 0.0080645161290323
2614, -0.0013867189547353, 0.00054920584036524, 0.0088709677419355
2615, -0.0013867189547353, 0.00054920584036524, 0.0096774193548387
2616, -0.0013867189547353, 0.00054920584036524, 0.010483870967742
2617, -0.0013867189547353, 0.00054920584036524, 0.011290322580645
2618, -0.0013867189547353, 0.00054920584036524, 0.012096774193548
2619, -0.0013867189547353, 0.00054920584036524, 0.012903225806452
2620, -0.0013867189547353, 0.00054920584036524, 0.013709677419355
2621, -0.0013867189547353, 0.00054920584036524, 0.014516129032258
2622, -0.0013867189547353, 0.00054920584036524, 0.015322580645161
2623, -0.0013867189547353, 0.00054920584036524, 0.016129032258065
2624, -0.0013867189547353, 0.00054920584036524, 0.016935483870968
2625, -0.0013867189547353, 0.00054920584036524, 0.017741935483871
2626, -0.0013867189547353, 0.00054920584036524, 0.018548387096774
2627, -0.0013867189547353, 0.00054920584036524, 0.019354838709677
2628, -0.0013867189547353, 0.00054920584036524, 0.020161290322581
2629, -0.0013867189547353, 0.00054920584036524, 0.020967741935484
2630, -0.0013867189547353, 0.00054920584036524, 0.021774193548387
2631, -0.0013867189547353, 0.00054920584036524, 0.02258064516129
2632, -0.0013867189547353, 0.00054920584036524, 0.023387096774194
2633, -0.0013867189547353, 0.00054920584036524, 0.024193548387097
2634, -0.0013867189547353, 0.00054920584036524, 0.025
2635, -0.0013867189547353, 0.00054920584036524, 0.025806451612903
2636, -0.0013867189547353, 0.00054920584036524, 0.026612903225806
2637, -0.0013867189547353, 0.00054920584036524, 0.02741935483871
2638, -0.0013867189547353, 0.00054920584036524, 0.028225806451613
2639, -0.0013867189547353, 0.00054920584036524, 0.029032258064516
2640, -0.0013867189547353, 0.00054920584036524, 0.029838709677419
2641, -0.0013867189547353, 0.00054920584036524, 0.030645161290323
2642, -0.0013867189547353, 0.00054920584036524, 0.031451612903226
2643, -0.0013867189547353, 0.00054920584036524, 0.032258064516129
2644, -0.0013867189547353, 0.00054920584036524, 0.033064516129032
2645, -0.0013867189547353, 0.00054920584036524, 0.033870967741935
2646, -0.0013867189547353, 0.00054920584036524, 0.034677419354839
2647, -0.0013867189547353, 0.00054920584036524, 0.035483870967742
2648, -0.0013867189547353, 0.00054920584036524, 0.036290322580645
2649, -0.0013867189547353, 0.00054920584036524, 0.037096774193548
2650, -0.0013867189547353, 0.00054920584036524, 0.037903225806452
2651, -0.0013867189547353, 0.00054920584036524, 0.038709677419355
2652, -0.0013867189547353, 0.00054920584036524, 0.039516129032258
2653, -0.0013867189547353, 0.00054920584036524, 0.040322580645161
2654, -0.0013867189547353, 0.00054920584036524, 0.041129032258065
2655, -0.0013867189547353, 0.00054920584036524, 0.041935483870968
2656, -0.0013867189547353, 0.00054920584036524, 0.042741935483871
2657, -0.0013867189547353, 0.00054920584036524, 0.043548387096774
2658, -0.0013867189547353, 0.00054920584036524, 0.044354838709677
2659, -0.0013867189547353, 0.00054920584036524, 0.045161290322581
2660, -0.0013867189547353, 0.00054920584036524, 0.045967741935484
2661, -0.0013867189547353, 0.00054920584036524, 0.046774193548387
2662, -0.0013867189547353, 0.00054920584036524, 0.04758064516129
2663, -0.0013867189547353, 0.00054920584036524, 0.048387096774194
2664, -0.0013867189547353, 0.00054920584036524, 0.049193548387097
2665, 0.00048849174837993, 0.00066548813235549, 0.00080645161290323
2666, 0.00048849174837993, 0.00066548813235549, 0.0016129032258065
2667, 0.00048849174837993, 0.00066548813235549, 0.0024193548387097
2668, 0.00048849174837993, 0.00066548813235549, 0.0032258064516129
2669, 0.00048849174837993, 0.00066548813235549, 0.0040322580645161
2670, 0.00048849174837993, 0.00066548813235549, 0.0048387096774194
2671, 0.00048849174837993, 0.00066548813235549, 0.0056451612903226
2672, 0.00048849174837993, 0.00066548813235549, 0.0064516129032258
2673, 0.00048849174837993, 0.00066548813235549, 0.007258064516129
2674, 0.00048849174837993, 0.00066548813235549, 0.0080645161290323
2675, 0.00048849174837993, 0.00066548813235549, 0.0088709677419355
2676, 0.00048849174837993, 0.00066548813235549, 0.0096774193548387
2677, 0.00048849174837993, 0.00066548813235549, 0.010483870967742
2678, 0.00048849174837993, 0.00066548813235549, 0.011290322580645
2679, 0.00048849174837993, 0.00066548813235549, 0.012096774193548
2680, 0.00048849174837993, 0.00066548813235549, 0.012903225806452
2681, 0.00048849174837993, 0.00066548813235549, 0.013709677419355
2682, 0.00048849174837993, 0.00066548813235549, 0.014516129032258
2683, 0.00048849174837993, 0.00066548813235549, 0.015322580645161
2684, 0.00048849174837993, 0.00066548813235549, 0.016129032258065
2685, 0.00048849174837993, 0.00066548813235549, 0.016935483870968
2686, 0.00048849174837993, 0.00066548813235549, 0.017741935483871
2687, 0.00048849174837993, 0.00066548813235549, 0.018548387096774
2688, 0.00048849174837993, 0.00066548813235549, 0.019354838709677
2689, 0.00048849174837993, 0.00066548813235549, 0.020161290322581
2690, 0.00048849174837993, 0.00066548813235549, 0.020967741935484
2691, 0.00048849174837993, 0.00066548813235549, 0.021774193548387
2692, 0.00048849174837993, 0.00066548813235549, 0.02258064516129
2693, 0.00048849174837993, 0.00066548813235549, 0.023387096774194
2694, 0.00048849174837993, 0.00066548813235549, 0.024193548387097
2695, 0.00048849174837993, 0.00066548813235549, 0.025
2696, 0.00048849174837993, 0.00066548813235549, 0.025806451612903
2697, 0.00048849174837993, 0.00066548813235549, 0.026612903225806
2698, 0.00048849174837993, 0.00066548813235549, 0.02741935483871
2699, 0.00048849174837993, 0.00066548813235549, 0.028225806451613
2700, 0.00048849174837993, 0.00066548813235549, 0.029032258064516
2701, 0.00048849174837993, 0.00066548813235549, 0.029838709677419
2702, 0.00048849174837993, 0.00066548813235549, 0.030645161290323
2703, 0.00048849174837993, 0.00066548813235549, 0.031451612903226
2704, 0.00048849174837993, 0.00066548813235549, 0.032258064516129
2705, 0.00048849174837993, 0.00066548813235549, 0.033064516129032
2706, 0.00048849174837993, 0.00066548813235549, 0.033870967741935
2707, 0.00048849174837993, 0.00066548813235549, 0.034677419354839
2708, 0.00048849174837993, 0.00066548813235549, 0.035483870967742
2709, 0.00048849174837993, 0.00066548813235549, 0.036290322580645
2710, 0.00048849174837993, 0.00066548813235549, 0.037096774193548
2711, 0.00048849174837993, 0.00066548813235549, 0.037903225806452
2712, 0.00048849174837993, 0.00066548813235549, 0.038709677419355
2713, 0.00048849174837993, 0.00066548813235549, 0.039516129032258
2714, 0.00048849174837993, 0.00066548813235549, 0.040322580645161
2715, 0.00048849174837993, 0.00066548813235549, 0.041129032258065
2716, 0.00048849174837993, 0.00066548813235549, 0.041935483870968
2717, 0.00048849174837993, 0.00066548813235549, 0.042741935483871
2718, 0.00048849174837993, 0.00066548813235549, 0.043548387096774
2719, 0.00048849174837993, 0.00066548813235549, 0.044354838709677
2720, 0.00048849174837993, 0.00066548813235549, 0.045161290322581
2721, 0.00048849174837993, 0.00066548813235549, 0.045967741935484
2722, 0.00048849174837993, 0.00066548813235549, 0.046774193548387
2723, 0.00048849174837993, 0.00066548813235549, 0.04758064516129
2724, 0.00048849174837993, 0.00066548813235549, 0.048387096774194
2725, 0.00048849174837993, 0.00066548813235549, 0.049193548387097
2726, 0.00022420628866771, 0.0016043471649007, 0.00080645161290323
2727, 0.00022420628866771, 0.0016043471649007, 0.0016129032258065
2728, 0.00022420628866771, 0.0016043471649007, 0.0024193548387097
2729, 0.00022420628866771, 0.0016043471649007, 0.0032258064516129
2730, 0.00022420628866771, 0.0016043471649007, 0.0040322580645161
2731, 0.00022420628866771, 0.0016043471649007, 0.0048387096774194
2732, 0.00022420628866771, 0.0016043471649007, 0.0056451612903226
2733, 0.00022420628866771, 0.0016043471649007, 0.0064516129032258
2734, 0.00022420628866771, 0.0016043471649007, 0.007258064516129
2735, 0.00022420628866771, 0.0016043471649007, 0.0080645161290323
2736, 0.00022420628866771, 0.0016043471649007, 0.0088709677419355
2737, 0.00022420628866771, 0.0016043471649007, 0.0096774193548387
2738, 0.00022420628866771, 0.0016043471649007, 0.010483870967742
2739, 0.00022420628866771, 0.0016043471649007, 0.011290322580645
2740, 0.00022420628866771, 0.0016043471649007, 0.012096774193548
2741, 0.00022420628866771, 0.0016043471649007, 0.012903225806452
2742, 0.00022420628866771, 0.0016043471649007, 0.013709677419355
2743, 0.00022420628866771, 0.0016043471649007, 0.014516129032258
2744, 0.00022420628866771, 0.0016043471649007, 0.015322580645161
2745, 0.00022420628866771, 0.0016043471649007, 0.016129032258065
2746, 0.00022420628866771, 0.0016043471649007, 0.016935483870968
2747, 0.00022420628866771, 0.0016043471649007, 0.017741935483871
2748, 0.00022420628866771, 0.0016043471649007, 0.018548387096774
2749, 0.00022420628866771, 0.0016043471649007, 0.019354838709677
2750, 0.00022420628866771, 0.0016043471649007, 0.020161290322581
2751, 0.00022420628866771, 0.0016043471649007, 0.020967741935484
2752, 0.00022420628866771, 0.0016043471649007, 0.021774193548387
2753, 0.00022420628866771, 0.0016043471649007, 0.02258064516129
2754, 0.00022420628866771, 0.0016043471649007, 0.023387096774194
2755, 0.00022420628866771, 0.0016043471649007, 0.024193548387097
2756, 0.00022420628866771, 0.0016043471649007, 0.025
2757, 0.00022420628866771, 0.0016043471649007, 0.025806451612903
2758, 0.00022420628866771, 0.0016043471649007, 0.026612903225806
2759, 0.00022420628866771, 0.0016043471649007, 0.02741935483871
2760, 0.00022420628866771, 0.0016043471649007, 0.028225806451613
2761, 0.00022420628866771, 0.0016043471649007, 0.029032258064516
2762, 0.00022420628866771, 0.0016043471649007, 0.029838709677419
2763, 0.00022420628866771, 0.0016043471649007, 0.030645161290323
2764, 0.00022420628866771, 0.0016043471649007, 0.031451612903226
2765, 0.00022420628866771, 0.0016043471649007, 0.032258064516129
2766, 0.00022420628866771, 0.0016043471649007, 0.033064516129032
2767, 0.00022420628866771, 0.0016043471649007, 0.033870967741935
2768, 0.00022420628866771, 0.0016043471649007, 0.034677419354839
2769, 0.00022420628866771, 0.0016043471649007, 0.035483870967742
2770, 0.00022420628866771, 0.0016043471649007, 0.036290322580645
2771, 0.00022420628866771, 0.0016043471649007, 0.037096774193548
2772, 0.00022420628866771, 0.0016043471649007, 0.037903225806452
2773, 0.00022420628866771, 0.0016043471649007, 0.038709677419355
2774, 0.00022420628866771, 0.0016043471649007, 0.039516129032258
2775, 0.00022420628866771, 0.0016043471649007, 0.040322580645161
2776, 0.00022420628866771, 0.0016043471649007, 0.041129032258065
2777, 0.00022420628866771, 0.0016043471649007, 0.041935483870968
2778, 0.00022420628866771, 0.0016043471649007, 0.042741935483871
2779, 0.00022420628866771, 0.0016043471649007, 0.043548387096774
2780, 0.00022420628866771, 0.0016043471649007, 0.044354838709677
2781, 0.00022420628866771, 0.0016043471649007, 0.045161290322581
2782, 0.00022420628866771, 0.0016043471649007, 0.045967741935484
2783, 0.00022420628866771, 0.0016043471649007, 0.046774193548387
2784, 0.00022420628866771, 0.0016043471649007, 0.04758064516129
2785, 0.00022420628866771, 0.0016043471649007, 0.048387096774194
2786, 0.00022420628866771, 0.0016043471649007, 0.049193548387097
2787, 0.00092031942355379, 0.0012990597720882, 0.00080645161290323
2788, 0.00092031942355379, 0.0012990597720882, 0.0016129032258065
2789, 0.00092031942355379, 0.0012990597720882, 0.0024193548387097
2790, 0.00092031942355379, 0.0012990597720882, 0.0032258064516129
2791, 0.00092031942355379, 0.0012990597720882, 0.0040322580645161
2792, 0.00092031942355379, 0.0012990597720882, 0.0048387096774194
2793, 0.00092031942355379, 0.0012990597720882, 0.0056451612903226
2794, 0.00092031942355379, 0.0012990597720882, 0.0064516129032258
2795, 0.00092031942355379, 0.0012990597720882, 0.007258064516129
2796, 0.00092031942355379, 0.0012990597720882, 0.0080645161290323
2797, 0.00092031942355379, 0.0012990597720882, 0.0088709677419355
2798, 0.00092031942355379, 0.0012990597720882, 0.0096774193548387
2799, 0.00092031942355379, 0.0012990597720882, 0.010483870967742
2800, 0.00092031942355379, 0.0012990597720882, 0.011290322580645
2801, 0.00092031942355379, 0.0012990597720882, 0.012096774193548
2802, 0.00092031942355379, 0.0012990597720882, 0.012903225806452
2803, 0.00092031942355379, 0.0012990597720882, 0.013709677419355
2804, 0.00092031942355379, 0.0012990597720882, 0.014516129032258
2805, 0.00092031942355379, 0.0012990597720882, 0.015322580645161
2806, 0.00092031942355379, 0.0012990597720882, 0.016129032258065
2807, 0.00092031942355379, 0.0012990597720882, 0.016935483870968
2808, 0.00092031942355379, 0.0012990597720882, 0.017741935483871
2809, 0.00092031942355379, 0.0012990597720882, 0.018548387096774
2810, 0.00092031942355379, 0.0012990597720882, 0.019354838709677
2811, 0.00092031942355379, 0.0012990597720882, 0.020161290322581
2812, 0.00092031942355379, 0.0012990597720882, 0.020967741935484
2813, 0.00092031942355379, 0.0012990597720882, 0.021774193548387
2814, 0.00092031942355379, 0.0012990597720882, 0.02258064516129
2815, 0.00092031942355379, 0.0012990597720882, 0.023387096774194
2816, 0.00092031942355379, 0.0012990597720882, 0.024193548387097
2817, 0.00092031942355379, 0.0012990597720882, 0.025
2818, 0.00092031942355379, 0.0012990597720882, 0.025806451612903
2819, 0.00092031942355379, 0.0012990597720882, 0.026612903225806
2820, 0.00092031942355379, 0.0012990597720882, 0.02741935483871
2821, 0.00092031942355379, 0.0012990597720882, 0.028225806451613
2822, 0.00092031942355379, 0.0012990597720882, 0.029032258064516
2823, 0.00092031942355379, 0.0012990597720882, 0.029838709677419
2824, 0.00092031942355379, 0.0012990597720882, 0.030645161290323
2825, 0.00092031942355379, 0.0012990597720882, 0.031451612903226
2826, 0.00092031942355379, 0.0012990597720882, 0.032258064516129
2827, 0.00092031942355379, 0.0012990597720882, 0.033064516129032
2828, 0.00092031942355379, 0.0012990597720882, 0.033870967741935
2829, 0.00092031942355379, 0.0012990597720882, 0.034677419354839
2830, 0.00092031942355379, 0.0012990597720882, 0.035483870967742
2831, 0.00092031942355379, 0.0012990597720882, 0.036290322580645
2832, 0.00092031942355379, 0.0012990597720882, 0.037096774193548
2833, 0.00092031942355379, 0.0012990597720882, 0.037903225806452
2834, 0.00092031942355379, 0.0012990597720882, 0.038709677419355
2835, 0.00092031942355379, 0.0012990597720882, 0.039516129032258
2836, 0.00092031942355379, 0.0012990597720882, 0.040322580645161
2837, 0.00092031942355379, 0.0012990597720882, 0.041129032258065
2838, 0.00092031942355379, 0.0012990597720882, 0.041935483870968
2839, 0.00092031942355379, 0.0012990597720882, 0.042741935483871
2840, 0.00092031942355379, 0.0012990597720882, 0.043548387096774
2841, 0.00092031942355379, 0.0012990597720882, 0.044354838709677
2842, 0.00092031942355379, 0.0012990597720882, 0.045161290322581
2843, 0.00092031942355379, 0.0012990597720882, 0.045967741935484
2844, 0.00092031942355379, 0.0012990597720882, 0.046774193548387
2845, 0.00092031942355379, 0.0012990597720882, 0.04758064516129
2846, 0.00092031942355379, 0.0012990597720882, 0.048387096774194
2847, 0.00092031942355379, 0.0012990597720882, 0.049193548387097
2848, 0.00082604997442798, -0.00022879666348586, 0.00080645161290323
2849, 0.00082604997442798, -0.00022879666348586, 0.0016129032258065
2850, 0.00082604997442798, -0.00022879666348586, 0.0024193548387097
2851, 0.00082604997442798, -0.00022879666348586, 0.0032258064516129
2852, 0.00082604997442798, -0.00022879666348586, 0.0040322580645161
2853, 0.00082604997442798, -0.00022879666348586, 0.0048387096774194
2854, 0.00082604997442798, -0.00022879666348586, 0.0056451612903226
2855, 0.00082604997442798, -0.00022879666348586, 0.0064516129032258
2856, 0.00082604997442798, -0.00022879666348586, 0.007258064516129
2857, 0.00082604997442798, -0.00022879666348586, 0.0080645161290323
2858, 0.00082604997442798, -0.00022879666348586, 0.0088709677419355
2859, 0.00082604997442798, -0.00022879666348586, 0.0096774193548387
2860, 0.00082604997442798, -0.00022879666348586, 0.010483870967742
2861, 0.00082604997442798, -0.00022879666348586, 0.011290322580645
2862, 0.00082604997442798, -0.00022879666348586, 0.012096774193548
2863, 0.00082604997442798, -0.00022879666348586, 0.012903225806452
2864, 0.00082604997442798, -0.00022879666348586, 0.013709677419355
2865, 0.00082604997442798, -0.00022879666348586, 0.014516129032258
2866, 0.00082604997442798, -0.00022879666348586, 0.015322580645161
2867, 0.00082604997442798, -0.00022879666348586, 0.016129032258065
2868, 0.00082604997442798, -0.00022879666348586, 0.016935483870968
2869, 0.00082604997442798, -0.00022879666348586, 0.017741935483871
2870, 0.00082604997442798, -0.00022879666348586, 0.018548387096774
2871, 0.00082604997442798, -0.00022879666348586, 0.019354838709677
2872, 0.00082604997442798, -0.00022879666348586, 0.020161290322581
2873, 0.00082604997442798, -0.00022879666348586, 0.020967741935484
2874, 0.00082604997442798, -0.00022879666348586, 0.021774193548387
2875, 0.00082604997442798, -0.00022879666348586, 0.02258064516129
2876, 0.00082604997442798, -0.00022879666348586, 0.023387096774194
2877, 0.00082604997442798, -0.00022879666348586, 0.024193548387097
2878, 0.00082604997442798, -0.00022879666348586, 0.025
2879, 0.00082604997442798, -0.00022879666348586, 0.025806451612903
2880, 0.00082604997442798, -0.00022879666348586, 0.026612903225806
2881, 0.00082604997442798, -0.00022879666348586, 0.02741935483871
2882, 0.00082604997442798, -0.00022879666348586, 0.028225806451613
2883, 0.00082604997442798, -0.00022879666348586, 0.029032258064516
2884, 0.00082604997442798, -0.00022879666348586, 0.029838709677419
2885, 0.00082604997442798, -0.00022879666348586, 0.030645161290323
2886, 0.00082604997442798, -0.00022879666348586, 0.031451612903226
2887, 0.00082604997442798, -0.00022879666348586, 0.032258064516129
2888, 0.00082604997442798, -0.00022879666348586, 0.033064516129032
2889, 0.00082604997442798, -0.00022879666348586, 0.033870967741935
2890, 0.00082604997442798, -0.00022879666348586, 0.034677419354839
2891, 0.00082604997442798, -0.00022879666348586, 0.035483870967742
2892, 0.00082604997442798, -0.00022879666348586, 0.036290322580645
2893, 0.00082604997442798, -0.00022879666348586, 0.037096774193548
2894, 0.00082604997442798, -0.00022879666348586, 0.037903225806452
2895, 0.00082604997442798, -0.00022879666348586, 0.038709677419355
2896, 0.00082604997442798, -0.00022879666348586, 0.039516129032258
2897, 0.00082604997442798, -0.00022879666348586, 0.040322580645161
2898, 0.00082604997442798, -0.00022879666348586, 0.041129032258065
2899, 0.00082604997442798, -0.00022879666348586, 0.041935483870968
2900, 0.00082604997442798, -0.00022879666348586, 0.042741935483871
2901, 0.00082604997442798, -0.00022879666348586, 0.043548387096774
2902, 0.00082604997442798, -0.00022879666348586, 0.044354838709677
2903, 0.00082604997442798, -0.00022879666348586, 0.045161290322581
2904, 0.00082604997442798, -0.00022879666348586, 0.045967741935484
2905, 0.00082604997442798, -0.00022879666348586, 0.046774193548387
2906, 0.00082604997442798, -0.00022879666348586, 0.04758064516129
2907, 0.00082604997442798, -0.00022879666348586, 0.048387096774194
2908, 0.00082604997442798, -0.00022879666348586, 0.049193548387097
2909, 0.0015512581011685, -0.00050116931522006, 0.00080645161290323
2910, 0.0015512581011685, -0.00050116931522006, 0.0016129032258065
2911, 0.0015512581011685, -0.00050116931522006, 0.0024193548387097
2912, 0.0015512581011685, -0.00050116931522006, 0.0032258064516129
2913, 0.0015512581011685, -0.00050116931522006, 0.0040322580645161
2914, 0.0015512581011685, -0.00050116931522006, 0.0048387096774194
2915, 0.0015512581011685, -0.00050116931522006, 0.0056451612903226
2916, 0.0015512581011685, -0.00050116931522006, 0.0064516129032258
2917, 0.0015512581011685, -0.00050116931522006, 0.007258064516129
2918, 0.0015512581011685, -0.00050116931522006, 0.0080645161290323
2919, 0.0015512581011685, -0.00050116931522006, 0.0088709677419355
2920, 0.0015512581011685, -0.00050116931522006, 0.0096774193548387
2921, 0.0015512581011685, -0.00050116931522006, 0.010483870967742
2922, 0.0015512581011685, -0.00050116931522006, 0.011290322580645
2923, 0.0015512581011685, -0.00050116931522006, 0.012096774193548
2924, 0.0015512581011685, -0.00050116931522006, 0.012903225806452
2925, 0.0015512581011685, -0.00050116931522006, 0.013709677419355
2926, 0.0015512581011685, -0.00050116931522006, 0.014516129032258
2927, 0.0015512581011685, -0.00050116931522006, 0.015322580645161
2928, 0.0015512581011685, -0.00050116931522006, 0.016129032258065
2929, 0.0015512581011685, -0.00050116931522006, 0.016935483870968
2930, 0.0015512581011685, -0.00050116931522006, 0.017741935483871
2931, 0.0015512581011685, -0.00050116931522006, 0.018548387096774
2932, 0.0015512581011685, -0.00050116931522006, 0.019354838709677
2933, 0.0015512581011685, -0.00050116931522006, 0.020161290322581
2934, 0.0015512581011685, -0.00050116931522006, 0.020967741935484
2935, 0.0015512581011685, -0.00050116931522006, 0.021774193548387
2936, 0.0015512581011685, -0.00050116931522006, 0.02258064516129
2937, 0.0015512581011685, -0.00050116931522006, 0.023387096774194
2938, 0.0015512581011685, -0.00050116931522006, 0.024193548387097
2939, 0.0015512581011685, -0.00050116931522006, 0.025
2940, 0.0015512581011685, -0.00050116931522006, 0.025806451612903
2941, 0.0015512581011685, -0.00050116931522006, 0.026612903225806
2942, 0.0015512581011685, -0.00050116931522006, 0.02741935483871
2943, 0.0015512581011685, -0.00050116931522006, 0.028225806451613
2944, 0.0015512581011685, -0.00050116931522006, 0.029032258064516
2945, 0.0015512581011685, -0.00050116931522006, 0.029838709677419
2946, 0.0015512581011685, -0.00050116931522006, 0.030645161290323
2947, 0.0015512581011685, -0.00050116931522006, 0.031451612903226
2948, 0.0015512581011685, -0.00050116931522006, 0.032258064516129
2949, 0.0015512581011685, -0.00050116931522006, 0.033064516129032
2950, 0.0015512581011685, -0.00050116931522006, 0.033870967741935
2951, 0.0015512581011685, -0.00050116931522006, 0.034677419354839
2952, 0.0015512581011685, -0.00050116931522006, 0.035483870967742
2953, 0.0015512581011685, -0.00050116931522006, 0.036290322580645
2954, 0.0015512581011685, -0.00050116931522006, 0.037096774193548
2955, 0.0015512581011685, -0.00050116931522006, 0.037903225806452
2956, 0.0015512581011685, -0.00050116931522006, 0.038709677419355
2957, 0.0015512581011685, -0.00050116931522006, 0.039516129032258
2958, 0.0015512581011685, -0.00050116931522006, 0.040322580645161
2959, 0.0015512581011685, -0.00050116931522006, 0.041129032258065
2960, 0.0015512581011685, -0.00050116931522006, 0.041935483870968
2961, 0.0015512581011685, -0.00050116931522006, 0.042741935483871
2962, 0.0015512581011685, -0.00050116931522006, 0.043548387096774
2963, 0.0015512581011685, -0.00050116931522006, 0.044354838709677
2964, 0.0015512581011685, -0.00050116931522006, 0.045161290322581
2965, 0.0015512581011685, -0.00050116931522006, 0.045967741935484
2966, 0.0015512581011685, -0.00050116931522006, 0.046774193548387
2967, 0.0015512581011685, -0.00050116931522006, 0.04758064516129
2968, 0.0015512581011685, -0.00050116931522006, 0.048387096774194
2969, 0.0015512581011685, -0.00050116931522006, 0.049193548387097
2970, 0.00014423611252538, 6.7003782260672e-05, 0.00080645161290323
2971, 0.00014423611252538, 6.7003782260672e-05, 0.0016129032258065
2972, 0.00014423611252538, 6.7003782260672e-05, 0.0024193548387097
2973, 0.00014423611252538, 6.7003782260672e-05, 0.0032258064516129
2974, 0.00014423611252538, 6.7003782260672e-05, 0.0040322580645161
2975, 0.00014423611252538, 6.7003782260672e-05, 0.0048387096774194
2976, 0.00014423611252538, 6.7003782260672e-05, 0.0056451612903226
2977, 0.00014423611252538, 6.7003782260672e-05, 0.0064516129032258
2978, 0.00014423611252538, 6.7003782260672e-05, 0.007258064516129
2979, 0.00014423611252538, 6.7003782260672e-05, 0.0080645161290323
2980, 0.00014423611252538, 6.7003782260672e-05, 0.0088709677419355
2981, 0.00014423611252538, 6.7003782260672e-05, 0.0096774193548387
2982, 0.00014423611252538, 6.7003782260672e-05, 0.010483870967742
2983, 0.00014423611252538, 6.7003782260672e-05, 0.011290322580645
2984, 0.00014423611252538, 6.7003782260672e-05, 0.012096774193548
2985, 0.00014423611252538, 6.7003782260672e-05, 0.012903225806452
2986, 0.00014423611252538, 6.7003782260672e-05, 0.013709677419355
2987, 0.00014423611252538, 6.7003782260672e-05, 0.014516129032258
2988, 0.00014423611252538, 6.7003782260672e-05, 0.015322580645161
2989, 0.00014423611252538, 6.7003782260672e-05, 0.016129032258065
2990, 0.00014423611252538, 6.7003782260672e-05, 0.016935483870968
2991, 0.00014423611252538, 6.7003782260672e-05, 0.017741935483871
2992, 0.00014423611252538, 6.7003782260672e-05, 0.018548387096774
2993, 0.00014423611252538, 6.7003782260672e-05, 0.019354838709677
2994, 0.00014423611252538, 6.7003782260672e-05, 0.020161290322581
2995, 0.00014423611252538, 6.7003782260672e-05, 0.020967741935484
2996, 0.00014423611252538, 6.7003782260672e-05, 0.021774193548387
2997, 0.00014423611252538, 6.7003782260672e-05, 0.02258064516129
2998, 0.00014423611252538, 6.7003782260672e-05, 0.023387096774194
2999, 0.00014423611252538, 6.7003782260672e-05, 0.024193548387097
3000, 0.00014423611252538, 6.7003782260672e-05, 0.025
3001, 0.00014423611252538, 6.7003782260672e-05, 0.025806451612903
3002, 0.00014423611252538, 6.7003782260672e-05, 0.026612903225806
3003, 0.00014423611252538, 6.7003782260672e-05, 0.02741935483871
3004, 0.00014423611252538, 6.7003782260672e-05, 0.028225806451613
3005, 0.00014423611252538, 6.7003782260672e-05, 0.029032258064516
3006, 0.00014423611252538, 6.7003782260672e-05, 0.029838709677419
3007, 0.00014423611252538, 6.7003782260672e-05, 0.030645161290323
3008, 0.00014423611252538, 6.7003782260672e-05, 0.031451612903226
3009, 0.00014423611252538, 6.7003782260672e-05, 0.032258064516129
3010, 0.00014423611252538, 6.7003782260672e-05, 0.033064516129032
3011, 0.00014423611252538, 6.7003782260672e-05, 0.033870967741935
3012, 0.00014423611252538, 6.7003782260672e-05, 0.034677419354839
3013, 0.00014423611252538, 6.7003782260672e-05, 0.035483870967742
3014, 0.00014423611252538, 6.7003782260672e-05, 0.036290322580645
3015, 0.00014423611252538, 6.7003782260672e-05, 0.037096774193548
3016, 0.00014423611252538, 6.7003782260672e-05, 0.037903225806452
3017, 0.00014423611252538, 6.7003782260672e-05, 0.038709677419355
3018, 0.00014423611252538, 6.7003782260672e-05, 0.039516129032258
3019, 0.00014423611252538, 6.7003782260672e-05, 0.040322580645161
3020, 0.00014423611252538, 6.7003782260672e-05, 0.041129032258065
3021, 0.00014423611252538, 6.7003782260672e-05, 0.041935483870968
3022, 0.00014423611252538, 6.7003782260672e-05, 0.042741935483871
3023, 0.00014423611252538, 6.7003782260672e-05, 0.043548387096774
3024, 0.00014423611252538, 6.7003782260672e-05, 0.044354838709677
3025, 0.00014423611252538, 6.7003782260672e-05, 0.045161290322581
3026, 0.00014423611252538, 6.7003782260672e-05, 0.045967741935484
3027, 0.00014423611252538, 6.7003782260672e-05, 0.046774193548387
3028, 0.00014423611252538, 6.7003782260672e-05, 0.04758064516129
3029, 0.00014423611252538, 6.7003782260672e-05, 0.048387096774194
3030, 0.00014423611252538, 6.7003782260672e-05, 0.049193548387097
3031, -0.0015365137626698, -0.0007271447603704, 0.00080645161290323
3032, -0.0015365137626698, -0.0007271447603704, 0.0016129032258065
3033, -0.0015365137626698, -0.0007271447603704, 0.0024193548387097
3034, -0.0015365137626698, -0.0007271447603704, 0.0032258064516129
3035, -0.0015365137626698, -0.0007271447603704, 0.0040322580645161
3036, -0.0015365137626698, -0.0007271447603704, 0.0048387096774194
3037, -0.0015365137626698, -0.0007271447603704, 0.0056451612903226
3038, -0.0015365137626698, -0.0007271447603704, 0.0064516129032258
3039, -0.0015365137626698, -0.0007271447603704, 0.007258064516129
3040, -0.0015365137626698, -0.0007271447603704, 0.0080645161290323
3041, -0.0015365137626698, -0.0007271447603704, 0.0088709677419355
3042, -0.0015365137626698, -0.0007271447603704, 0.0096774193548387
3043, -0.0015365137626698, -0.0007271447603704, 0.010483870967742
3044, -0.0015365137626698, -0.0007271447603704, 0.011290322580645
3045, -0.0015365137626698, -0.0007271447603704, 0.012096774193548
3046, -0.0015365137626698, -0.0007271447603704, 0.012903225806452
3047, -0.0015365137626698, -0.0007271447603704, 0.013709677419355
3048, -0.0015365137626698, -0.0007271447603704, 0.014516129032258
3049, -0.0015365137626698, -0.0007271447603704, 0.015322580645161
3050, -0.0015365137626698, -0.0007271447603704, 0.016129032258065
3051, -0.0015365137626698, -0.0007271447603704, 0.016935483870968
3052, -0.0015365137626698, -0.0007271447603704, 0.017741935483871
3053, -0.0015365137626698, -0.0007271447603704, 0.018548387096774
3054, -0.0015365137626698, -0.0007271447603704, 0.019354838709677
3055, -0.0015365137626698, -0.0007271447603704, 0.020161290322581
3056, -0.0015365137626698, -0.0007271447603704, 0.020967741935484
3057, -0.0015365137626698, -0.0007271447603704, 0.021774193548387
3058, -0.0015365137626698, -0.0007271447603704, 0.02258064516129
3059, -0.0015365137626698, -0.0007271447603704, 0.023387096774194
3060, -0.0015365137626698, -0.0007271447603704, 0.024193548387097
3061, -0.0015365137626698, -0.0007271447603704, 0.025
3062, -0.0015365137626698, -0.0007271447603704, 0.025806451612903
3063, -0.0015365137626698, -0.0007271447603704, 0.026612903225806
3064, -0.0015365137626698, -0.0007271447603704, 0.02741935483871
3065, -0.0015365137626698, -0.0007271447603704, 0.028225806451613
3066, -0.0015365137626698, -0.0007271447603704, 0.029032258064516
3067, -0.0015365137626698, -0.0007271447603704, 0.029838709677419
3068, -0.0015365137626698, -0.0007271447603704, 0.030645161290323
3069, -0.0015365137626698, -0.0007271447603704, 0.031451612903226
3070, -0.0015365137626698, -0.0007271447603704, 0.032258064516129
3071, -0.0015365137626698, -0.0007271447603704, 0.033064516129032
3072, -0.0015365137626698, -0.0007271447603704, 0.033870967741935
3073, -0.0015365137626698, -0.0007271447603704, 0.034677419354839
3074, -0.0015365137626698, -0.0007271447603704, 0.035483870967742
3075, -0.0015365137626698, -0.0007271447603704, 0.036290322580645
3076, -0.0015365137626698, -0.0007271447603704, 0.037096774193548
3077, -0.0015365137626698, -0.0007271447603704, 0.037903225806452
3078, -0.0015365137626698, -0.0007271447603704, 0.038709677419355
3079, -0.0015365137626698, -0.0007271447603704, 0.039516129032258
3080, -0.0015365137626698, -0.0007271447603704, 0.040322580645161
3081, -0.0015365137626698, -0.0007271447603704, 0.041129032258065
3082, -0.0015365137626698, -0.0007271447603704, 0.041935483870968
3083, -0.0015365137626698, -0.0007271447603704, 0.042741935483871
3084, -0.0015365137626698, -0.0007271447603704, 0.043548387096774
3085, -0.0015365137626698, -0.0007271447603704, 0.044354838709677
3086, -0.0015365137626698, -0.0007271447603704, 0.045161290322581
3087, -0.0015365137626698, -0.0007271447603704, 0.045967741935484
3088, -0.0015365137626698, -0.0007271447603704, 0.046774193548387
3089, -0.0015365137626698, -0.0007271447603704, 0.04758064516129
3090, -0.0015365137626698, -0.0007271447603704, 0.048387096774194
3091, -0.0015365137626698, -0.0007271447603704, 0.049193548387097
3092, -8.8811030563971e-05, -0.0017534794812777, 0.00080645161290323
3093, -8.8811030563971e-05, -0.0017534794812777, 0.0016129032258065
3094, -8.8811030563971e-05, -0.0017534794812777, 0.0024193548387097
3095, -8.8811030563971e-05, -0.0017534794812777, 0.0032258064516129
3096, -8.8811030563971e-05, -0.0017534794812777, 0.0040322580645161
3097, -8.8811030563971e-05, -0.0017534794812777, 0.0048387096774194
3098, -8.8811030563971e-05, -0.0017534794812777, 0.0056451612903226
3099, -8.8811030563971e-05, -0.0017534794812777, 0.0064516129032258
3100, -8.8811030563971e-05, -0.0017534794812777, 0.007258064516129
3101, -8.8811030563971e-05, -0.0017534794812777, 0.0080645161290323
3102, -8.8811030563971e-05, -0.0017534794812777, 0.0088709677419355
3103, -8.8811030563971e-05, -0.0017534794812777, 0.0096774193548387
3104, -8.8811030563971e-05, -0.0017534794812777, 0.010483870967742
3105, -8.8811030563971e-05, -0.0017534794812777, 0.011290322580645
3106, -8.8811030563971e-05, -0.0017534794812777, 0.012096774193548
3107, -8.8811030563971e-05, -0.0017534794812777, 0.012903225806452
3108, -8.8811030563971e-05, -0.0017534794812777, 0.013709677419355
3109, -8.8811030563971e-05, -0.0017534794812777, 0.014516129032258
3110, -8.8811030563971e-05, -0.0017534794812777, 0.015322580645161
3111, -8.8811030563971e-05, -0.0017534794812777, 0.016129032258065
3112, -8.8811030563971e-05, -0.0017534794812777, 0.016935483870968
3113, -8.8811030563971e-05, -0.0017534794812777, 0.017741935483871
3114, -8.8811030563971e-05, -0.0017534794812777, 0.018548387096774
3115, -8.8811030563971e-05, -0.0017534794812777, 0.019354838709677
3116, -8.8811030563971e-05, -0.0017534794812777, 0.020161290322581
3117, -8.8811030563971e-05, -0.0017534794812777, 0.020967741935484
3118, -8.8811030563971e-05, -0.0017534794812777, 0.021774193548387
3119, -8.8811030563971e-05, -0.0017534794812777, 0.02258064516129
3120, -8.8811030563971e-05, -0.0017534794812777, 0.023387096774194
3121, -8.8811030563971e-05, -0.0017534794812777, 0.024193548387097
3122, -8.8811030563971e-05, -0.0017534794812777, 0.025
3123, -8.8811030563971e-05, -0.0017534794812777, 0.025806451612903
3124, -8.8811030563971e-05, -0.0017534794812777, 0.026612903225806
3125, -8.8811030563971e-05, -0.0017534794812777, 0.02741935483871
3126, -8.8811030563971e-05, -0.0017534794812777, 0.028225806451613
3127, -8.8811030563971e-05, -0.0017534794812777, 0.029032258064516
3128, -8.8811030563971e-05, -0.0017534794812777, 0.029838709677419
3129, -8.8811030563971e-05, -0.0017534794812777, 0.030645161290323
3130, -8.8811030563971e-05, -0.0017534794812777, 0.031451612903226
3131, -8.8811030563971e-05, -0.0017534794812777, 0.032258064516129
3132, -8.8811030563971e-05, -0.0017534794812777, 0.033064516129032
3133, -8.8811030563971e-05, -0.0017534794812777, 0.033870967741935
3134, -8.8811030563971e-05, -0.0017534794812777, 0.034677419354839
3135, -8.8811030563971e-05, -0.0017534794812777, 0.035483870967742
3136, -8.8811030563971e-05, -0.0017534794812777, 0.036290322580645
3137, -8.8811030563971e-05, -0.0017534794812777, 0.037096774193548
3138, -8.8811030563971e-05, -0.0017534794812777, 0.037903225806452
3139, -8.8811030563971e-05, -0.0017534794812777, 0.038709677419355
3140, -8.8811030563971e-05, -0.0017534794812777, 0.039516129032258
3141, -8.8811030563971e-05, -0.0017534794812777, 0.040322580645161
3142, -8.8811030563971e-05, -0.0017534794812777, 0.041129032258065
3143, -8.8811030563971e-05, -0.0017534794812777, 0.041935483870968
3144, -8.8811030563971e-05, -0.0017534794812777, 0.042741935483871
3145, -8.8811030563971e-05, -0.0017534794812777, 0.043548387096774
3146, -8.8811030563971e-05, -0.0017534794812777, 0.044354838709677
3147, -8.8811030563971e-05, -0.0017534794812777, 0.045161290322581
3148, -8.8811030563971e-05, -0.0017534794812777, 0.045967741935484
3149, -8.8811030563971e-05, -0.0017534794812777, 0.046774193548387
3150, -8.8811030563971e-05, -0.0017534794812777, 0.04758064516129
3151, -8.8811030563971e-05, -0.0017534794812777, 0.048387096774194
3152, -8.8811030563971e-05, -0.0017534794812777, 0.049193548387097
3153, -0.00057041622783923, 0.0018169104355305, 0.00080645161290323
3154, -0.00057041622783923, 0.0018169104355305, 0.0016129032258065
3155, -0.00057041622783923, 0.0018169104355305, 0.0024193548387097
3156, -0.00057041622783923, 0.0018169104355305, 0.0032258064516129
3157, -0.00057041622783923, 0.0018169104355305, 0.0040322580645161
3158, -0.00057041622783923, 0.0018169104355305, 0.0048387096774194
3159, -0.00057041622783923, 0.0018169104355305, 0.0056451612903226
3160, -0.00057041622783923, 0.0018169104355305, 0.0064516129032258
3161, -0.00057041622783923, 0.0018169104355305, 0.007258064516129
3162, -0.00057041622783923, 0.0018169104355305, 0.0080645161290323
3163, -0.00057041622783923, 0.0018169104355305, 0.0088709677419355
3164, -0.00057041622783923, 0.0018169104355305, 0.0096774193548387
3165, -0.00057041622783923, 0.0018169104355305, 0.010483870967742
3166, -0.00057041622783923, 0.0018169104355305, 0.011290322580645
3167, -0.00057041622783923, 0.0018169104355305, 0.012096774193548
3168, -0.00057041622783923, 0.0018169104355305, 0.012903225806452
3169, -0.00057041622783923, 0.0018169104355305, 0.013709677419355
3170, -0.00057041622783923, 0.0018169104355305, 0.014516129032258
3171, -0.00057041622783923, 0.0018169104355305, 0.015322580645161
3172, -0.00057041622783923, 0.0018169104355305, 0.016129032258065
3173, -0.00057041622783923, 0.0018169104355305, 0.016935483870968
3174, -0.00057041622783923, 0.0018169104355305, 0.017741935483871
3175, -0.00057041622783923, 0.0018169104355305, 0.018548387096774
3176, -0.00057041622783923, 0.0018169104355305, 0.019354838709677
3177, -0.00057041622783923, 0.0018169104355305, 0.020161290322581
3178, -0.00057041622783923, 0.0018169104355305, 0.020967741935484
3179, -0.00057041622783923, 0.0018169104355305, 0.021774193548387
3180, -0.00057041622783923, 0.0018169104355305, 0.02258064516129
3181, -0.00057041622783923, 0.0018169104355305, 0.023387096774194
3182, -0.00057041622783923, 0.0018169104355305, 0.024193548387097
3183, -0.00057041622783923, 0.0018169104355305, 0.025
3184, -0.00057041622783923, 0.0018169104355305, 0.025806451612903
3185, -0.00057041622783923, 0.0018169104355305, 0.026612903225806
3186, -0.00057041622783923, 0.0018169104355305, 0.02741935483871
3187, -0.00057041622783923, 0.0018169104355305, 0.028225806451613
3188, -0.00057041622783923, 0.0018169104355305, 0.029032258064516
3189, -0.00057041622783923, 0.0018169104355305, 0.029838709677419
3190, -0.00057041622783923, 0.0018169104355305, 0.030645161290323
3191, -0.00057041622783923, 0.0018169104355305, 0.031451612903226
3192, -0.00057041622783923, 0.0018169104355305, 0.032258064516129
3193, -0.00057041622783923, 0.0018169104355305, 0.033064516129032
3194, -0.00057041622783923, 0.0018169104355305, 0.033870967741935
3195, -0.00057041622783923, 0.0018169104355305, 0.034677419354839
3196, -0.00057041622783923, 0.0018169104355305, 0.035483870967742
3197, -0.00057041622783923, 0.0018169104355305, 0.036290322580645
3198, -0.00057041622783923, 0.0018169104355305, 0.037096774193548
3199, -0.00057041622783923, 0.0018169104355305, 0.037903225806452
3200, -0.00057041622783923, 0.0018169104355305, 0.038709677419355
3201, -0.00057041622783923, 0.0018169104355305, 0.039516129032258
3202, -0.00057041622783923, 0.0018169104355305, 0.040322580645161
3203, -0.00057041622783923, 0.0018169104355305, 0.041129032258065
3204, -0.00057041622783923, 0.0018169104355305, 0.041935483870968
3205, -0.00057041622783923, 0.0018169104355305, 0.042741935483871
3206, -0.00057041622783923, 0.0018169104355305, 0.043548387096774
3207, -0.00057041622783923, 0.0018169104355305, 0.044354838709677
3208, -0.00057041622783923, 0.0018169104355305, 0.045161290322581
3209, -0.00057041622783923, 0.0018169104355305, 0.045967741935484
3210, -0.00057041622783923, 0.0018169104355305, 0.046774193548387
3211, -0.00057041622783923, 0.0018169104355305, 0.04758064516129
3212, -0.00057041622783923, 0.0018169104355305, 0.048387096774194
3213, -0.00057041622783923, 0.0018169104355305, 0.049193548387097
******* E L E M E N T S *************
*ELEMENT, type=C3D8, ELSET=Volume1
1425, 110, 107, 102, 109, 1811, 1628, 1323, 1750
1426, 1811, 1628, 1323, 1750, 1812, 1629, 1324, 1751
1427, 1812, 1629, 1324, 1751, 1813, 1630, 1325, 1752
1428, 1813, 1630, 1325, 1752, 1814, 1631, 1326, 1753
1429, 1814, 1631, 1326, 1753, 1815, 1632, 1327, 1754
1430, 1815, 1632, 1327, 1754, 1816, 1633, 1328, 1755
1431, 1816, 1633, 1328, 1755, 1817, 1634, 1329, 1756
1432, 1817, 1634, 1329, 1756, 1818, 1635, 1330, 1757
1433, 1818, 1635, 1330, 1757, 1819, 1636, 1331, 1758
1434, 1819, 1636, 1331, 1758, 1820, 1637, 1332, 1759
1435, 1820, 1637, 1332, 1759, 1821, 1638, 1333, 1760
1436, 1821, 1638, 1333, 1760, 1822, 1639, 1334, 1761
1437, 1822, 1639, 1334, 1761, 1823, 1640, 1335, 1762
1438, 1823, 1640, 1335, 1762, 1824, 1641, 1336, 1763
1439, 1824, 1641, 1336, 1763, 1825, 1642, 1337, 1764
1440, 1825, 1642, 1337, 1764, 1826, 1643, 1338, 1765
1441, 1826, 1643, 1338, 1765, 1827, 1644, 1339, 1766
1442, 1827, 1644, 1339, 1766, 1828, 1645, 1340, 1767
1443, 1828, 1645, 1340, 1767, 1829, 1646, 1341, 1768
1444, 1829, 1646, 1341, 1768, 1830, 1647, 1342, 1769
1445, 1830, 1647, 1342, 1769, 1831, 1648, 1343, 1770
1446, 1831, 1648, 1343, 1770, 1832, 1649, 1344, 1771
1447, 1832, 1649, 1344, 1771, 1833, 1650, 1345, 1772
1448, 1833, 1650, 1345, 1772, 1834, 1651, 1346, 1773
1449, 1834, 1651, 1346, 1773, 1835, 1652, 1347, 1774
1450, 1835, 1652, 1347, 1774, 1836, 1653, 1348, 1775
1451, 1836, 1653, 1348, 1775, 1837, 1654, 1349, 1776
1452, 1837, 1654, 1349, 1776, 1838, 1655, 1350, 1777
1453, 1838, 1655, 1350, 1777, 1839, 1656, 1351, 1778
1454, 1839, 1656, 1351, 1778, 1840, 1657, 1352, 1779
1455, 1840, 1657, 1352, 1779, 1841, 1658, 1353, 1780
1456, 1841, 1658, 1353, 1780, 1842, 1659, 1354, 1781
1457, 1842, 1659, 1354, 1781, 1843, 1660, 1355, 1782
1458, 1843, 1660, 1355, 1782, 1844, 1661, 1356, 1783
1459, 1844, 1661, 1356, 1783, 1845, 1662, 1357, 1784
1460, 1845, 1662, 1357, 1784, 1846, 1663, 1358, 1785
1461, 1846, 1663, 1358, 1785, 1847, 1664, 1359, 1786
1462, 1847, 1664, 1359, 1786, 1848, 1665, 1360, 1787
1463, 1848, 1665, 1360, 1787, 1849, 1666, 1361, 1788
1464, 1849, 1666, 1361, 1788, 1850, 1667, 1362, 1789
1465, 1850, 1667, 1362, 1789, 1851, 1668, 1363, 1790
1466, 1851, 1668, 1363, 1790, 1852, 1669, 1364, 1791
1467, 1852, 1669, 1364, 1791, 1853, 1670, 1365, 1792
1468, 1853, 1670, 1365, 1792, 1854, 1671, 1366, 1793
1469, 1854, 1671, 1366, 1793, 1855, 1672, 1367, 1794
1470, 1855, 1672, 1367, 1794, 1856, 1673, 1368, 1795
1471, 1856, 1673, 1368, 1795, 1857, 1674, 1369, 1796
1472, 1857, 1674, 1369, 1796, 1858, 1675, 1370, 1797
1473, 1858, 1675, 1370, 1797, 1859, 1676, 1371, 1798
1474, 1859, 1676, 1371, 1798, 1860, 1677, 1372, 1799
1475, 1860, 1677, 1372, 1799, 1861, 1678, 1373, 1800
1476, 1861, 1678, 1373, 1800, 1862, 1679, 1374, 1801
1477, 1862, 1679, 1374, 1801, 1863, 1680, 1375, 1802
1478, 1863, 1680, 1375, 1802, 1864, 1681, 1376, 1803
1479, 1864, 1681, 1376, 1803, 1865, 1682, 1377, 1804
1480, 1865, 1682, 1377, 1804, 1866, 1683, 1378, 1805
1481, 1866, 1683, 1378, 1805, 1867, 1684, 1379, 1806
1482, 1867, 1684, 1379, 1806, 1868, 1685, 1380, 1807
1483, 1868, 1685, 1380, 1807, 1869, 1686, 1381, 1808
1484, 1869, 1686, 1381, 1808, 1870, 1687, 1382, 1809
1485, 1870, 1687, 1382, 1809, 1871, 1688, 1383, 1810
1486, 1871, 1688, 1383, 1810, 1300, 1297, 1292, 1299
1487, 110, 108, 104, 107, 1811, 1689, 1445, 1628
1488, 1811, 1689, 1445, 1628, 1812, 1690, 1446, 1629
1489, 1812, 1690, 1446, 1629, 1813, 1691, 1447, 1630
1490, 1813, 1691, 1447, 1630, 1814, 1692, 1448, 1631
1491, 1814, 1692, 1448, 1631, 1815, 1693, 1449, 1632
1492, 1815, 1693, 1449, 1632, 1816, 1694, 1450, 1633
1493, 1816, 1694, 1450, 1633, 1817, 1695, 1451, 1634
1494, 1817, 1695, 1451, 1634, 1818, 1696, 1452, 1635
1495, 1818, 1696, 1452, 1635, 1819, 1697, 1453, 1636
1496, 1819, 1697, 1453, 1636, 1820, 1698, 1454, 1637
1497, 1820, 1698, 1454, 1637, 1821, 1699, 1455, 1638
1498, 1821, 1699, 1455, 1638, 1822, 1700, 1456, 1639
1499, 1822, 1700, 1456, 1639, 1823, 1701, 1457, 1640
1500, 1823, 1701, 1457, 1640, 1824, 1702, 1458, 1641
1501, 1824, 1702, 1458, 1641, 1825, 1703, 1459, 1642
1502, 1825, 1703, 1459, 1642, 1826, 1704, 1460, 1643
1503, 1826, 1704, 1460, 1643, 1827, 1705, 1461, 1644
1504, 1827, 1705, 1461, 1644, 1828, 1706, 1462, 1645
1505, 1828, 1706, 1462, 1645, 1829, 1707, 1463, 1646
1506, 1829, 1707, 1463, 1646, 1830, 1708, 1464, 1647
1507, 1830, 1708, 1464, 1647, 1831, 1709, 1465, 1648
1508, 1831, 1709, 1465, 1648, 1832, 1710, 1466, 1649
1509, 1832, 1710, 1466, 1649, 1833, 1711, 1467, 1650
1510, 1833, 1711, 1467, 1650, 1834, 1712, 1468, 1651
1511, 1834, 1712, 1468, 1651, 1835, 1713, 1469, 1652
1512, 1835, 1713, 1469, 1652, 1836, 1714, 1470, 1653
1513, 1836, 1714, 1470, 1653, 1837, 1715, 1471, 1654
1514, 1837, 1715, 1471, 1654, 1838, 1716, 1472, 1655
1515, 1838, 1716, 1472, 1655, 1839, 1717, 1473, 1656
1516, 1839, 1717, 1473, 1656, 1840, 1718, 1474, 1657
1517, 1840, 1718, 1474, 1657, 1841, 1719, 1475, 1658
1518, 1841, 1719, 1475, 1658, 1842, 1720, 1476, 1659
1519, 1842, 1720, 1476, 1659, 1843, 1721, 1477, 1660
1520, 1843, 1721, 1477, 1660, 1844, 1722, 1478, 1661
1521, 1844, 1722, 1478, 1661, 1845, 1723, 1479, 1662
1522, 1845, 1723, 1479, 1662, 1846, 1724, 1480, 1663
1523, 1846, 1724, 1480, 1663, 1847, 1725, 1481, 1664
1524, 1847, 1725, 1481, 1664, 1848, 1726, 1482, 1665
1525, 1848, 1726, 1482, 1665, 1849, 1727, 1483, 1666
1526, 1849, 1727, 1483, 1666, 1850, 1728, 1484, 1667
1527, 1850, 1728, 1484, 1667, 1851, 1729, 1485, 1668
1528, 1851, 1729, 1485, 1668, 1852, 1730, 1486, 1669
1529, 1852, 1730, 1486, 1669, 1853, 1731, 1487, 1670
1530, 1853, 1731, 1487, 1670, 1854, 1732, 1488, 1671
1531, 1854, 1732, 1488, 1671, 1855, 1733, 1489, 1672
1532, 1855, 1733, 1489, 1672, 1856, 1734, 1490, 1673
1533, 1856, 1734, 1490, 1673, 1857, 1735, 1491, 1674
1534, 1857, 1735, 1491, 1674, 1858, 1736, 1492, 1675
1535, 1858, 1736, 1492, 1675, 1859, 1737, 1493, 1676
1536, 1859, 1737, 1493, 1676, 1860, 1738, 1494, 1677
1537, 1860, 1738, 1494, 1677, 1861, 1739, 1495, 1678
1538, 1861, 1739, 1495, 1678, 1862, 1740, 1496, 1679
1539, 1862, 1740, 1496, 1679, 1863, 1741, 1497, 1680
1540, 1863, 1741, 1497, 1680, 1864, 1742, 1498, 1681
1541, 1864, 1742, 1498, 1681, 1865, 1743, 1499, 1682
1542, 1865, 1743, 1499, 1682, 1866, 1744, 1500, 1683
1543, 1866, 1744, 1500, 1683, 1867, 1745, 1501, 1684
1544, 1867, 1745, 1501, 1684, 1868, 1746, 1502, 1685
1545, 1868, 1746, 1502, 1685, 1869, 1747, 1503, 1686
1546, 1869, 1747, 1503, 1686, 1870, 1748, 1504, 1687
1547, 1870, 1748, 1504, 1687, 1871, 1749, 1505, 1688
1548, 1871, 1749, 1505, 1688, 1300, 1298, 1294, 1297
1549, 110, 109, 106, 108, 1811, 1750, 1567, 1689
1550, 1811, 1750, 1567, 1689, 1812, 1751, 1568, 1690
1551, 1812, 1751, 1568, 1690, 1813, 1752, 1569, 1691
1552, 1813, 1752, 1569, 1691, 1814, 1753, 1570, 1692
1553, 1814, 1753, 1570, 1692, 1815, 1754, 1571, 1693
1554, 1815, 1754, 1571, 1693, 1816, 1755, 1572, 1694
1555, 1816, 1755, 1572, 1694, 1817, 1756, 1573, 1695
1556, 1817, 1756, 1573, 1695, 1818, 1757, 1574, 1696
1557, 1818, 1757, 1574, 1696, 1819, 1758, 1575, 1697
1558, 1819, 1758, 1575, 1697, 1820, 1759, 1576, 1698
1559, 1820, 1759, 1576, 1698, 1821, 1760, 1577, 1699
1560, 1821, 1760, 1577, 1699, 1822, 1761, 1578, 1700
1561, 1822, 1761, 1578, 1700, 1823, 1762, 1579, 1701
1562, 1823, 1762, 1579, 1701, 1824, 1763, 1580, 1702
1563, 1824, 1763, 1580, 1702, 1825, 1764, 1581, 1703
1564, 1825, 1764, 1581, 1703, 1826, 1765, 1582, 1704
1565, 1826, 1765, 1582, 1704, 1827, 1766, 1583, 1705
1566, 1827, 1766, 1583, 1705, 1828, 1767, 1584, 1706
1567, 1828, 1767, 1584, 1706, 1829, 1768, 1585, 1707
1568, 1829, 1768, 1585, 1707, 1830, 1769, 1586, 1708
1569, 1830, 1769, 1586, 1708, 1831, 1770, 1587, 1709
1570, 1831, 1770, 1587, 1709, 1832, 1771, 1588, 1710
1571, 1832, 1771, 1588, 1710, 1833, 1772, 1589, 1711
1572, 1833, 1772, 1589, 1711, 1834, 1773, 1590, 1712
1573, 1834, 1773, 1590, 1712, 1835, 1774, 1591, 1713
1574, 1835, 1774, 1591, 1713, 1836, 1775, 1592, 1714
1575, 1836, 1775, 1592, 1714, 1837, 1776, 1593, 1715
1576, 1837, 1776, 1593, 1715, 1838, 1777, 1594, 1716
1577, 1838, 1777, 1594, 1716, 1839, 1778, 1595, 1717
1578, 1839, 1778, 1595, 1717, 1840, 1779, 1596, 1718
1579, 1840, 1779, 1596, 1718, 1841, 1780, 1597, 1719
1580, 1841, 1780, 1597, 1719, 1842, 1781, 1598, 1720
1581, 1842, 1781, 1598, 1720, 1843, 1782, 1599, 1721
1582, 1843, 1782, 1599, 1721, 1844, 1783, 1600, 1722
1583, 1844, 1783, 1600, 1722, 1845, 1784, 1601, 1723
1584, 1845, 1784, 1601, 1723, 1846, 1785, 1602, 1724
1585, 1846, 1785, 1602, 1724, 1847, 1786, 1603, 1725
1586, 1847, 1786, 1603, 1725, 1848, 1787, 1604, 1726
1587, 1848, 1787, 1604, 1726, 1849, 1788, 1605, 1727
1588, 1849, 1788, 1605, 1727, 1850, 1789, 1606, 1728
1589, 1850, 1789, 1606, 1728, 1851, 1790, 1607, 1729
1590, 1851, 1790, 1607, 1729, 1852, 1791, 1608, 1730
1591, 1852, 1791, 1608, 1730, 1853, 1792, 1609, 1731
1592, 1853, 1792, 1609, 1731, 1854, 1793, 1610, 1732
1593, 1854, 1793, 1610, 1732, 1855, 1794, 1611, 1733
1594, 1855, 1794, 1611, 1733, 1856, 1795, 1612, 1734
1595, 1856, 1795, 1612, 1734, 1857, 1796, 1613, 1735
1596, 1857, 1796, 1613, 1735, 1858, 1797, 1614, 1736
1597, 1858, 1797, 1614, 1736, 1859, 1798, 1615, 1737
1598, 1859, 1798, 1615, 1737, 1860, 1799, 1616, 1738
1599, 1860, 1799, 1616, 1738, 1861, 1800, 1617, 1739
1600, 1861, 1800, 1617, 1739, 1862, 1801, 1618, 1740
1601, 1862, 1801, 1618, 1740, 1863, 1802, 1619, 1741
1602, 1863, 1802, 1619, 1741, 1864, 1803, 1620, 1742
1603, 1864, 1803, 1620, 1742, 1865, 1804, 1621, 1743
1604, 1865, 1804, 1621, 1743, 1866, 1805, 1622, 1744
1605, 1866, 1805, 1622, 1744, 1867, 1806, 1623, 1745
1606, 1867, 1806, 1623, 1745, 1868, 1807, 1624, 1746
1607, 1868, 1807, 1624, 1746, 1869, 1808, 1625, 1747
1608, 1869, 1808, 1625, 1747, 1870, 1809, 1626, 1748
1609, 1870, 1809, 1626, 1748, 1871, 1810, 1627, 1749
1610, 1871, 1810, 1627, 1749, 1300, 1299, 1296, 1298
1611, 113, 3, 4, 112, 1994, 133, 194, 1933
1612, 1994, 133, 194, 1933, 1995, 134, 195, 1934
1613, 1995, 134, 195, 1934, 1996, 135, 196, 1935
1614, 1996, 135, 196, 1935, 1997, 136, 197, 1936
1615, 1997, 136, 197, 1936, 1998, 137, 198, 1937
1616, 1998, 137, 198, 1937, 1999, 138, 199, 1938
1617, 1999, 138, 199, 1938, 2000, 139, 200, 1939
1618, 2000, 139, 200, 1939, 2001, 140, 201, 1940
1619, 2001, 140, 201, 1940, 2002, 141, 202, 1941
1620, 2002, 141, 202, 1941, 2003, 142, 203, 1942
1621, 2003, 142, 203, 1942, 2004, 143, 204, 1943
1622, 2004, 143, 204, 1943, 2005, 144, 205, 1944
1623, 2005, 144, 205, 1944, 2006, 145, 206, 1945
1624, 2006, 145, 206, 1945, 2007, 146, 207, 1946
1625, 2007, 146, 207, 1946, 2008, 147, 208, 1947
1626, 2008, 147, 208, 1947, 2009, 148, 209, 1948
1627, 2009, 148, 209, 1948, 2010, 149, 210, 1949
1628, 2010, 149, 210, 1949, 2011, 150, 211, 1950
1629, 2011, 150, 211, 1950, 2012, 151, 212, 1951
1630, 2012, 151, 212, 1951, 2013, 152, 213, 1952
1631, 2013, 152, 213, 1952, 2014, 153, 214, 1953
1632, 2014, 153, 214, 1953, 2015, 154, 215, 1954
1633, 2015, 154, 215, 1954, 2016, 155, 216, 1955
1634, 2016, 155, 216, 1955, 2017, 156, 217, 1956
1635, 2017, 156, 217, 1956, 2018, 157, 218, 1957
1636, 2018, 157, 218, 1957, 2019, 158, 219, 1958
1637, 2019, 158, 219, 1958, 2020, 159, 220, 1959
1638, 2020, 159, 220, 1959, 2021, 160, 221, 1960
1639, 2021, 160, 221, 1960, 2022, 161, 222, 1961
1640, 2022, 161, 222, 1961, 2023, 162, 223, 1962
1641, 2023, 162, 223, 1962, 2024, 163, 224, 1963
1642, 2024, 163, 224, 1963, 2025, 164, 225, 1964
1643, 2025, 164, 225, 1964, 2026, 165, 226, 1965
1644, 2026, 165, 226, 1965, 2027, 166, 227, 1966
1645, 2027, 166, 227, 1966, 2028, 167, 228, 1967
1646, 2028, 167, 228, 1967, 2029, 168, 229, 1968
1647, 2029, 168, 229, 1968, 2030, 169, 230, 1969
1648, 2030, 169, 230, 1969, 2031, 170, 231, 1970
1649, 2031, 170, 231, 1970, 2032, 171, 232, 1971
1650, 2032, 171, 232, 1971, 2033, 172, 233, 1972
1651, 2033, 172, 233, 1972, 2034, 173, 234, 1973
1652, 2034, 173, 234, 1973, 2035, 174, 235, 1974
1653, 2035, 174, 235, 1974, 2036, 175, 236, 1975
1654, 2036, 175, 236, 1975, 2037, 176, 237, 1976
1655, 2037, 176, 237, 1976, 2038, 177, 238, 1977
1656, 2038, 177, 238, 1977, 2039, 178, 239, 1978
1657, 2039, 178, 239, 1978, 2040, 179, 240, 1979
1658, 2040, 179, 240, 1979, 2041, 180, 241, 1980
1659, 2041, 180, 241, 1980, 2042, 181, 242, 1981
1660, 2042, 181, 242, 1981, 2043, 182, 243, 1982
1661, 2043, 182, 243, 1982, 2044, 183, 244, 1983
1662, 2044, 183, 244, 1983, 2045, 184, 245, 1984
1663, 2045, 184, 245, 1984, 2046, 185, 246, 1985
1664, 2046, 185, 246, 1985, 2047, 186, 247, 1986
1665, 2047, 186, 247, 1986, 2048, 187, 248, 1987
1666, 2048, 187, 248, 1987, 2049, 188, 249, 1988
1667, 2049, 188, 249, 1988, 2050, 189, 250, 1989
1668, 2050, 189, 250, 1989, 2051, 190, 251, 1990
1669, 2051, 190, 251, 1990, 2052, 191, 252, 1991
1670, 2052, 191, 252, 1991, 2053, 192, 253, 1992
1671, 2053, 192, 253, 1992, 2054, 193, 254, 1993
1672, 2054, 193, 254, 1993, 1303, 83, 84, 1302
1673, 113, 111, 1, 3, 1994, 1872, 22, 133
1674, 1994, 1872, 22, 133, 1995, 1873, 23, 134
1675, 1995, 1873, 23, 134, 1996, 1874, 24, 135
1676, 1996, 1874, 24, 135, 1997, 1875, 25, 136
1677, 1997, 1875, 25, 136, 1998, 1876, 26, 137
1678, 1998, 1876, 26, 137, 1999, 1877, 27, 138
1679, 1999, 1877, 27, 138, 2000, 1878, 28, 139
1680, 2000, 1878, 28, 139, 2001, 1879, 29, 140
1681, 2001, 1879, 29, 140, 2002, 1880, 30, 141
1682, 2002, 1880, 30, 141, 2003, 1881, 31, 142
1683, 2003, 1881, 31, 142, 2004, 1882, 32, 143
1684, 2004, 1882, 32, 143, 2005, 1883, 33, 144
1685, 2005, 1883, 33, 144, 2006, 1884, 34, 145
1686, 2006, 1884, 34, 145, 2007, 1885, 35, 146
1687, 2007, 1885, 35, 146, 2008, 1886, 36, 147
1688, 2008, 1886, 36, 147, 2009, 1887, 37, 148
1689, 2009, 1887, 37, 148, 2010, 1888, 38, 149
1690, 2010, 1888, 38, 149, 2011, 1889, 39, 150
1691, 2011, 1889, 39, 150, 2012, 1890, 40, 151
1692, 2012, 1890, 40, 151, 2013, 1891, 41, 152
1693, 2013, 1891, 41, 152, 2014, 1892, 42, 153
1694, 2014, 1892, 42, 153, 2015, 1893, 43, 154
1695, 2015, 1893, 43, 154, 2016, 1894, 44, 155
1696, 2016, 1894, 44, 155, 2017, 1895, 45, 156
1697, 2017, 1895, 45, 156, 2018, 1896, 46, 157
1698, 2018, 1896, 46, 157, 2019, 1897, 47, 158
1699, 2019, 1897, 47, 158, 2020, 1898, 48, 159
1700, 2020, 1898, 48, 159, 2021, 1899, 49, 160
1701, 2021, 1899, 49, 160, 2022, 1900, 50, 161
1702, 2022, 1900, 50, 161, 2023, 1901, 51, 162
1703, 2023, 1901, 51, 162, 2024, 1902, 52, 163
1704, 2024, 1902, 52, 163, 2025, 1903, 53, 164
1705, 2025, 1903, 53, 164, 2026, 1904, 54, 165
1706, 2026, 1904, 54, 165, 2027, 1905, 55, 166
1707, 2027, 1905, 55, 166, 2028, 1906, 56, 167
1708, 2028, 1906, 56, 167, 2029, 1907, 57, 168
1709, 2029, 1907, 57, 168, 2030, 1908, 58, 169
1710, 2030, 1908, 58, 169, 2031, 1909, 59, 170
1711, 2031, 1909, 59, 170, 2032, 1910, 60, 171
1712, 2032, 1910, 60, 171, 2033, 1911, 61, 172
1713, 2033, 1911, 61, 172, 2034, 1912, 62, 173
1714, 2034, 1912, 62, 173, 2035, 1913, 63, 174
1715, 2035, 1913, 63, 174, 2036, 1914, 64, 175
1716, 2036, 1914, 64, 175, 2037, 1915, 65, 176
1717, 2037, 1915, 65, 176, 2038, 1916, 66, 177
1718, 2038, 1916, 66, 177, 2039, 1917, 67, 178
1719, 2039, 1917, 67, 178, 2040, 1918, 68, 179
1720, 2040, 1918, 68, 179, 2041, 1919, 69, 180
1721, 2041, 1919, 69, 180, 2042, 1920, 70, 181
1722, 2042, 1920, 70, 181, 2043, 1921, 71, 182
1723, 2043, 1921, 71, 182, 2044, 1922, 72, 183
1724, 2044, 1922, 72, 183, 2045, 1923, 73, 184
1725, 2045, 1923, 73, 184, 2046, 1924, 74, 185
1726, 2046, 1924, 74, 185, 2047, 1925, 75, 186
1727, 2047, 1925, 75, 186, 2048, 1926, 76, 187
1728, 2048, 1926, 76, 187, 2049, 1927, 77, 188
1729, 2049, 1927, 77, 188, 2050, 1928, 78, 189
1730, 2050, 1928, 78, 189, 2051, 1929, 79, 190
1731, 2051, 1929, 79, 190, 2052, 1930, 80, 191
1732, 2052, 1930, 80, 191, 2053, 1931, 81, 192
1733, 2053, 1931, 81, 192, 2054, 1932, 82, 193
1734, 2054, 1932, 82, 193, 1303, 1301, 2, 83
1735, 113, 112, 103, 111, 1994, 1933, 1384, 1872
1736, 1994, 1933, 1384, 1872, 1995, 1934, 1385, 1873
1737, 1995, 1934, 1385, 1873, 1996, 1935, 1386, 1874
1738, 1996, 1935, 1386, 1874, 1997, 1936, 1387, 1875
1739, 1997, 1936, 1387, 1875, 1998, 1937, 1388, 1876
1740, 1998, 1937, 1388, 1876, 1999, 1938, 1389, 1877
1741, 1999, 1938, 1389, 1877, 2000, 1939, 1390, 1878
1742, 2000, 1939, 1390, 1878, 2001, 1940, 1391, 1879
1743, 2001, 1940, 1391, 1879, 2002, 1941, 1392, 1880
1744, 2002, 1941, 1392, 1880, 2003, 1942, 1393, 1881
1745, 2003, 1942, 1393, 1881, 2004, 1943, 1394, 1882
1746, 2004, 1943, 1394, 1882, 2005, 1944, 1395, 1883
1747, 2005, 1944, 1395, 1883, 2006, 1945, 1396, 1884
1748, 2006, 1945, 1396, 1884, 2007, 1946, 1397, 1885
1749, 2007, 1946, 1397, 1885, 2008, 1947, 1398, 1886
1750, 2008, 1947, 1398, 1886, 2009, 1948, 1399, 1887
1751, 2009, 1948, 1399, 1887, 2010, 1949, 1400, 1888
1752, 2010, 1949, 1400, 1888, 2011, 1950, 1401, 1889
1753, 2011, 1950, 1401, 1889, 2012, 1951, 1402, 1890
1754, 2012, 1951, 1402, 1890, 2013, 1952, 1403, 1891
1755, 2013, 1952, 1403, 1891, 2014, 1953, 1404, 1892
1756, 2014, 1953, 1404, 1892, 2015, 1954, 1405, 1893
1757, 2015, 1954, 1405, 1893, 2016, 1955, 1406, 1894
1758, 2016, 1955, 1406, 1894, 2017, 1956, 1407, 1895
1759, 2017, 1956, 1407, 1895, 2018, 1957, 1408, 1896
1760, 2018, 1957, 1408, 1896, 2019, 1958, 1409, 1897
1761, 2019, 1958, 1409, 1897, 2020, 1959, 1410, 1898
1762, 2020, 1959, 1410, 1898, 2021, 1960, 1411, 1899
1763, 2021, 1960, 1411, 1899, 2022, 1961, 1412, 1900
1764, 2022, 1961, 1412, 1900, 2023, 1962, 1413, 1901
1765, 2023, 1962, 1413, 1901, 2024, 1963, 1414, 1902
1766, 2024, 1963, 1414, 1902, 2025, 1964, 1415, 1903
1767, 2025, 1964, 1415, 1903, 2026, 1965, 1416, 1904
1768, 2026, 1965, 1416, 1904, 2027, 1966, 1417, 1905
1769, 2027, 1966, 1417, 1905, 2028, 1967, 1418, 1906
1770, 2028, 1967, 1418, 1906, 2029, 1968, 1419, 1907
1771, 2029, 1968, 1419, 1907, 2030, 1969, 1420, 1908
1772, 2030, 1969, 1420, 1908, 2031, 1970, 1421, 1909
1773, 2031, 1970, 1421, 1909, 2032, 1971, 1422, 1910
1774, 2032, 1971, 1422, 1910, 2033, 1972, 1423, 1911
1775, 2033, 1972, 1423, 1911, 2034, 1973, 1424, 1912
1776, 2034, 1973, 1424, 1912, 2035, 1974, 1425, 1913
1777, 2035, 1974, 1425, 1913, 2036, 1975, 1426, 1914
1778, 2036, 1975, 1426, 1914, 2037, 1976, 1427, 1915
1779, 2037, 1976, 1427, 1915, 2038, 1977, 1428, 1916
1780, 2038, 1977, 1428, 1916, 2039, 1978, 1429, 1917
1781, 2039, 1978, 1429, 1917, 2040, 1979, 1430, 1918
1782, 2040, 1979, 1430, 1918, 2041, 1980, 1431, 1919
1783, 2041, 1980, 1431, 1919, 2042, 1981, 1432, 1920
1784, 2042, 1981, 1432, 1920, 2043, 1982, 1433, 1921
1785, 2043, 1982, 1433, 1921, 2044, 1983, 1434, 1922
1786, 2044, 1983, 1434, 1922, 2045, 1984, 1435, 1923
1787, 2045, 1984, 1435, 1923, 2046, 1985, 1436, 1924
1788, 2046, 1985, 1436, 1924, 2047, 1986, 1437, 1925
1789, 2047, 1986, 1437, 1925, 2048, 1987, 1438, 1926
1790, 2048, 1987, 1438, 1926, 2049, 1988, 1439, 1927
1791, 2049, 1988, 1439, 1927, 2050, 1989, 1440, 1928
1792, 2050, 1989, 1440, 1928, 2051, 1990, 1441, 1929
1793, 2051, 1990, 1441, 1929, 2052, 1991, 1442, 1930
1794, 2052, 1991, 1442, 1930, 2053, 1992, 1443, 1931
1795, 2053, 1992, 1443, 1931, 2054, 1993, 1444, 1932
1796, 2054, 1993, 1444, 1932, 1303, 1302, 1293, 1301
1797, 116, 15, 16, 115, 2177, 865, 926, 2116
1798, 2177, 865, 926, 2116, 2178, 866, 927, 2117
1799, 2178, 866, 927, 2117, 2179, 867, 928, 2118
1800, 2179, 867, 928, 2118, 2180, 868, 929, 2119
1801, 2180, 868, 929, 2119, 2181, 869, 930, 2120
1802, 2181, 869, 930, 2120, 2182, 870, 931, 2121
1803, 2182, 870, 931, 2121, 2183, 871, 932, 2122
1804, 2183, 871, 932, 2122, 2184, 872, 933, 2123
1805, 2184, 872, 933, 2123, 2185, 873, 934, 2124
1806, 2185, 873, 934, 2124, 2186, 874, 935, 2125
1807, 2186, 874, 935, 2125, 2187, 875, 936, 2126
1808, 2187, 875, 936, 2126, 2188, 876, 937, 2127
1809, 2188, 876, 937, 2127, 2189, 877, 938, 2128
1810, 2189, 877, 938, 2128, 2190, 878, 939, 2129
1811, 2190, 878, 939, 2129, 2191, 879, 940, 2130
1812, 2191, 879, 940, 2130, 2192, 880, 941, 2131
1813, 2192, 880, 941, 2131, 2193, 881, 942, 2132
1814, 2193, 881, 942, 2132, 2194, 882, 943, 2133
1815, 2194, 882, 943, 2133, 2195, 883, 944, 2134
1816, 2195, 883, 944, 2134, 2196, 884, 945, 2135
1817, 2196, 884, 945, 2135, 2197, 885, 946, 2136
1818, 2197, 885, 946, 2136, 2198, 886, 947, 2137
1819, 2198, 886, 947, 2137, 2199, 887, 948, 2138
1820, 2199, 887, 948, 2138, 2200, 888, 949, 2139
1821, 2200, 888, 949, 2139, 2201, 889, 950, 2140
1822, 2201, 889, 950, 2140, 2202, 890, 951, 2141
1823, 2202, 890, 951, 2141, 2203, 891, 952, 2142
1824, 2203, 891, 952, 2142, 2204, 892, 953, 2143
1825, 2204, 892, 953, 2143, 2205, 893, 954, 2144
1826, 2205, 893, 954, 2144, 2206, 894, 955, 2145
1827, 2206, 894, 955, 2145, 2207, 895, 956, 2146
1828, 2207, 895, 956, 2146, 2208, 896, 957, 2147
1829, 2208, 896, 957, 2147, 2209, 897, 958, 2148
1830, 2209, 897, 958, 2148, 2210, 898, 959, 2149
1831, 2210, 898, 959, 2149, 2211, 899, 960, 2150
1832, 2211, 899, 960, 2150, 2212, 900, 961, 2151
1833, 2212, 900, 961, 2151, 2213, 901, 962, 2152
1834, 2213, 901, 962, 2152, 2214, 902, 963, 2153
1835, 2214, 902, 963, 2153, 2215, 903, 964, 2154
1836, 2215, 903, 964, 2154, 2216, 904, 965, 2155
1837, 2216, 904, 965, 2155, 2217, 905, 966, 2156
1838, 2217, 905, 966, 2156, 2218, 906, 967, 2157
1839, 2218, 906, 967, 2157, 2219, 907, 968, 2158
1840, 2219, 907, 968, 2158, 2220, 908, 969, 2159
1841, 2220, 908, 969, 2159, 2221, 909, 970, 2160
1842, 2221, 909, 970, 2160, 2222, 910, 971, 2161
1843, 2222, 910, 971, 2161, 2223, 911, 972, 2162
1844, 2223, 911, 972, 2162, 2224, 912, 973, 2163
1845, 2224, 912, 973, 2163, 2225, 913, 974, 2164
1846, 2225, 913, 974, 2164, 2226, 914, 975, 2165
1847, 2226, 914, 975, 2165, 2227, 915, 976, 2166
1848, 2227, 915, 976, 2166, 2228, 916, 977, 2167
1849, 2228, 916, 977, 2167, 2229, 917, 978, 2168
1850, 2229, 917, 978, 2168, 2230, 918, 979, 2169
1851, 2230, 918, 979, 2169, 2231, 919, 980, 2170
1852, 2231, 919, 980, 2170, 2232, 920, 981, 2171
1853, 2232, 920, 981, 2171, 2233, 921, 982, 2172
1854, 2233, 921, 982, 2172, 2234, 922, 983, 2173
1855, 2234, 922, 983, 2173, 2235, 923, 984, 2174
1856, 2235, 923, 984, 2174, 2236, 924, 985, 2175
1857, 2236, 924, 985, 2175, 2237, 925, 986, 2176
1858, 2237, 925, 986, 2176, 1306, 95, 96, 1305
1859, 116, 114, 14, 15, 2177, 2055, 804, 865
1860, 2177, 2055, 804, 865, 2178, 2056, 805, 866
1861, 2178, 2056, 805, 866, 2179, 2057, 806, 867
1862, 2179, 2057, 806, 867, 2180, 2058, 807, 868
1863, 2180, 2058, 807, 868, 2181, 2059, 808, 869
1864, 2181, 2059, 808, 869, 2182, 2060, 809, 870
1865, 2182, 2060, 809, 870, 2183, 2061, 810, 871
1866, 2183, 2061, 810, 871, 2184, 2062, 811, 872
1867, 2184, 2062, 811, 872, 2185, 2063, 812, 873
1868, 2185, 2063, 812, 873, 2186, 2064, 813, 874
1869, 2186, 2064, 813, 874, 2187, 2065, 814, 875
1870, 2187, 2065, 814, 875, 2188, 2066, 815, 876
1871, 2188, 2066, 815, 876, 2189, 2067, 816, 877
1872, 2189, 2067, 816, 877, 2190, 2068, 817, 878
1873, 2190, 2068, 817, 878, 2191, 2069, 818, 879
1874, 2191, 2069, 818, 879, 2192, 2070, 819, 880
1875, 2192, 2070, 819, 880, 2193, 2071, 820, 881
1876, 2193, 2071, 820, 881, 2194, 2072, 821, 882
1877, 2194, 2072, 821, 882, 2195, 2073, 822, 883
1878, 2195, 2073, 822, 883, 2196, 2074, 823, 884
1879, 2196, 2074, 823, 884, 2197, 2075, 824, 885
1880, 2197, 2075, 824, 885, 2198, 2076, 825, 886
1881, 2198, 2076, 825, 886, 2199, 2077, 826, 887
1882, 2199, 2077, 826, 887, 2200, 2078, 827, 888
1883, 2200, 2078, 827, 888, 2201, 2079, 828, 889
1884, 2201, 2079, 828, 889, 2202, 2080, 829, 890
1885, 2202, 2080, 829, 890, 2203, 2081, 830, 891
1886, 2203, 2081, 830, 891, 2204, 2082, 831, 892
1887, 2204, 2082, 831, 892, 2205, 2083, 832, 893
1888, 2205, 2083, 832, 893, 2206, 2084, 833, 894
1889, 2206, 2084, 833, 894, 2207, 2085, 834, 895
1890, 2207, 2085, 834, 895, 2208, 2086, 835, 896
1891, 2208, 2086, 835, 896, 2209, 2087, 836, 897
1892, 2209, 2087, 836, 897, 2210, 2088, 837, 898
1893, 2210, 2088, 837, 898, 2211, 2089, 838, 899
1894, 2211, 2089, 838, 899, 2212, 2090, 839, 900
1895, 2212, 2090, 839, 900, 2213, 2091, 840, 901
1896, 2213, 2091, 840, 901, 2214, 2092, 841, 902
1897, 2214, 2092, 841, 902, 2215, 2093, 842, 903
1898, 2215, 2093, 842, 903, 2216, 2094, 843, 904
1899, 2216, 2094, 843, 904, 2217, 2095, 844, 905
1900, 2217, 2095, 844, 905, 2218, 2096, 845, 906
1901, 2218, 2096, 845, 906, 2219, 2097, 846, 907
1902, 2219, 2097, 846, 907, 2220, 2098, 847, 908
1903, 2220, 2098, 847, 908, 2221, 2099, 848, 909
1904, 2221, 2099, 848, 909, 2222, 2100, 849, 910
1905, 2222, 2100, 849, 910, 2223, 2101, 850, 911
1906, 2223, 2101, 850, 911, 2224, 2102, 851, 912
1907, 2224, 2102, 851, 912, 2225, 2103, 852, 913
1908, 2225, 2103, 852, 913, 2226, 2104, 853, 914
1909, 2226, 2104, 853, 914, 2227, 2105, 854, 915
1910, 2227, 2105, 854, 915, 2228, 2106, 855, 916
1911, 2228, 2106, 855, 916, 2229, 2107, 856, 917
1912, 2229, 2107, 856, 917, 2230, 2108, 857, 918
1913, 2230, 2108, 857, 918, 2231, 2109, 858, 919
1914, 2231, 2109, 858, 919, 2232, 2110, 859, 920
1915, 2232, 2110, 859, 920, 2233, 2111, 860, 921
1916, 2233, 2111, 860, 921, 2234, 2112, 861, 922
1917, 2234, 2112, 861, 922, 2235, 2113, 862, 923
1918, 2235, 2113, 862, 923, 2236, 2114, 863, 924
1919, 2236, 2114, 863, 924, 2237, 2115, 864, 925
1920, 2237, 2115, 864, 925, 1306, 1304, 94, 95
1921, 116, 115, 106, 114, 2177, 2116, 1567, 2055
1922, 2177, 2116, 1567, 2055, 2178, 2117, 1568, 2056
1923, 2178, 2117, 1568, 2056, 2179, 2118, 1569, 2057
1924, 2179, 2118, 1569, 2057, 2180, 2119, 1570, 2058
1925, 2180, 2119, 1570, 2058, 2181, 2120, 1571, 2059
1926, 2181, 2120, 1571, 2059, 2182, 2121, 1572, 2060
1927, 2182, 2121, 1572, 2060, 2183, 2122, 1573, 2061
1928, 2183, 2122, 1573, 2061, 2184, 2123, 1574, 2062
1929, 2184, 2123, 1574, 2062, 2185, 2124, 1575, 2063
1930, 2185, 2124, 1575, 2063, 2186, 2125, 1576, 2064
1931, 2186, 2125, 1576, 2064, 2187, 2126, 1577, 2065
1932, 2187, 2126, 1577, 2065, 2188, 2127, 1578, 2066
1933, 2188, 2127, 1578, 2066, 2189, 2128, 1579, 2067
1934, 2189, 2128, 1579, 2067, 2190, 2129, 1580, 2068
1935, 2190, 2129, 1580, 2068, 2191, 2130, 1581, 2069
1936, 2191, 2130, 1581, 2069, 2192, 2131, 1582, 2070
1937, 2192, 2131, 1582, 2070, 2193, 2132, 1583, 2071
1938, 2193, 2132, 1583, 2071, 2194, 2133, 1584, 2072
1939, 2194, 2133, 1584, 2072, 2195, 2134, 1585, 2073
1940, 2195, 2134, 1585, 2073, 2196, 2135, 1586, 2074
1941, 2196, 2135, 1586, 2074, 2197, 2136, 1587, 2075
1942, 2197, 2136, 1587, 2075, 2198, 2137, 1588, 2076
1943, 2198, 2137, 1588, 2076, 2199, 2138, 1589, 2077
1944, 2199, 2138, 1589, 2077, 2200, 2139, 1590, 2078
1945, 2200, 2139, 1590, 2078, 2201, 2140, 1591, 2079
1946, 2201, 2140, 1591, 2079, 2202, 2141, 1592, 2080
1947, 2202, 2141, 1592, 2080, 2203, 2142, 1593, 2081
1948, 2203, 2142, 1593, 2081, 2204, 2143, 1594, 2082
1949, 2204, 2143, 1594, 2082, 2205, 2144, 1595, 2083
1950, 2205, 2144, 1595, 2083, 2206, 2145, 1596, 2084
1951, 2206, 2145, 1596, 2084, 2207, 2146, 1597, 2085
1952, 2207, 2146, 1597, 2085, 2208, 2147, 1598, 2086
1953, 2208, 2147, 1598, 2086, 2209, 2148, 1599, 2087
1954, 2209, 2148, 1599, 2087, 2210, 2149, 1600, 2088
1955, 2210, 2149, 1600, 2088, 2211, 2150, 1601, 2089
1956, 2211, 2150, 1601, 2089, 2212, 2151, 1602, 2090
1957, 2212, 2151, 1602, 2090, 2213, 2152, 1603, 2091
1958, 2213, 2152, 1603, 2091, 2214, 2153, 1604, 2092
1959, 2214, 2153, 1604, 2092, 2215, 2154, 1605, 2093
1960, 2215, 2154, 1605, 2093, 2216, 2155, 1606, 2094
1961, 2216, 2155, 1606, 2094, 2217, 2156, 1607, 2095
1962, 2217, 2156, 1607, 2095, 2218, 2157, 1608, 2096
1963, 2218, 2157, 1608, 2096, 2219, 2158, 1609, 2097
1964, 2219, 2158, 1609, 2097, 2220, 2159, 1610, 2098
1965, 2220, 2159, 1610, 2098, 2221, 2160, 1611, 2099
1966, 2221, 2160, 1611, 2099, 2222, 2161, 1612, 2100
1967, 2222, 2161, 1612, 2100, 2223, 2162, 1613, 2101
1968, 2223, 2162, 1613, 2101, 2224, 2163, 1614, 2102
1969, 2224, 2163, 1614, 2102, 2225, 2164, 1615, 2103
1970, 2225, 2164, 1615, 2103, 2226, 2165, 1616, 2104
1971, 2226, 2165, 1616, 2104, 2227, 2166, 1617, 2105
1972, 2227, 2166, 1617, 2105, 2228, 2167, 1618, 2106
1973, 2228, 2167, 1618, 2106, 2229, 2168, 1619, 2107
1974, 2229, 2168, 1619, 2107, 2230, 2169, 1620, 2108
1975, 2230, 2169, 1620, 2108, 2231, 2170, 1621, 2109
1976, 2231, 2170, 1621, 2109, 2232, 2171, 1622, 2110
1977, 2232, 2171, 1622, 2110, 2233, 2172, 1623, 2111
1978, 2233, 2172, 1623, 2111, 2234, 2173, 1624, 2112
1979, 2234, 2173, 1624, 2112, 2235, 2174, 1625, 2113
1980, 2235, 2174, 1625, 2113, 2236, 2175, 1626, 2114
1981, 2236, 2175, 1626, 2114, 2237, 2176, 1627, 2115
1982, 2237, 2176, 1627, 2115, 1306, 1305, 1296, 1304
1983, 119, 19, 20, 118, 2360, 1109, 1170, 2299
1984, 2360, 1109, 1170, 2299, 2361, 1110, 1171, 2300
1985, 2361, 1110, 1171, 2300, 2362, 1111, 1172, 2301
1986, 2362, 1111, 1172, 2301, 2363, 1112, 1173, 2302
1987, 2363, 1112, 1173, 2302, 2364, 1113, 1174, 2303
1988, 2364, 1113, 1174, 2303, 2365, 1114, 1175, 2304
1989, 2365, 1114, 1175, 2304, 2366, 1115, 1176, 2305
1990, 2366, 1115, 1176, 2305, 2367, 1116, 1177, 2306
1991, 2367, 1116, 1177, 2306, 2368, 1117, 1178, 2307
1992, 2368, 1117, 1178, 2307, 2369, 1118, 1179, 2308
1993, 2369, 1118, 1179, 2308, 2370, 1119, 1180, 2309
1994, 2370, 1119, 1180, 2309, 2371, 1120, 1181, 2310
1995, 2371, 1120, 1181, 2310, 2372, 1121, 1182, 2311
1996, 2372, 1121, 1182, 2311, 2373, 1122, 1183, 2312
1997, 2373, 1122, 1183, 2312, 2374, 1123, 1184, 2313
1998, 2374, 1123, 1184, 2313, 2375, 1124, 1185, 2314
1999, 2375, 1124, 1185, 2314, 2376, 1125, 1186, 2315
2000, 2376, 1125, 1186, 2315, 2377, 1126, 1187, 2316
2001, 2377, 1126, 1187, 2316, 2378, 1127, 1188, 2317
2002, 2378, 1127, 1188, 2317, 2379, 1128, 1189, 2318
2003, 2379, 1128, 1189, 2318, 2380, 1129, 1190, 2319
2004, 2380, 1129, 1190, 2319, 2381, 1130, 1191, 2320
2005, 2381, 1130, 1191, 2320, 2382, 1131, 1192, 2321
2006, 2382, 1131, 1192, 2321, 2383, 1132, 1193, 2322
2007, 2383, 1132, 1193, 2322, 2384, 1133, 1194, 2323
2008, 2384, 1133, 1194, 2323, 2385, 1134, 1195, 2324
2009, 2385, 1134, 1195, 2324, 2386, 1135, 1196, 2325
2010, 2386, 1135, 1196, 2325, 2387, 1136, 1197, 2326
2011, 2387, 1136, 1197, 2326, 2388, 1137, 1198, 2327
2012, 2388, 1137, 1198, 2327, 2389, 1138, 1199, 2328
2013, 2389, 1138, 1199, 2328, 2390, 1139, 1200, 2329
2014, 2390, 1139, 1200, 2329, 2391, 1140, 1201, 2330
2015, 2391, 1140, 1201, 2330, 2392, 1141, 1202, 2331
2016, 2392, 1141, 1202, 2331, 2393, 1142, 1203, 2332
2017, 2393, 1142, 1203, 2332, 2394, 1143, 1204, 2333
2018, 2394, 1143, 1204, 2333, 2395, 1144, 1205, 2334
2019, 2395, 1144, 1205, 2334, 2396, 1145, 1206, 2335
2020, 2396, 1145, 1206, 2335, 2397, 1146, 1207, 2336
2021, 2397, 1146, 1207, 2336, 2398, 1147, 1208, 2337
2022, 2398, 1147, 1208, 2337, 2399, 1148, 1209, 2338
2023, 2399, 1148, 1209, 2338, 2400, 1149, 1210, 2339
2024, 2400, 1149, 1210, 2339, 2401, 1150, 1211, 2340
2025, 2401, 1150, 1211, 2340, 2402, 1151, 1212, 2341
2026, 2402, 1151, 1212, 2341, 2403, 1152, 1213, 2342
2027, 2403, 1152, 1213, 2342, 2404, 1153, 1214, 2343
2028, 2404, 1153, 1214, 2343, 2405, 1154, 1215, 2344
2029, 2405, 1154, 1215, 2344, 2406, 1155, 1216, 2345
2030, 2406, 1155, 1216, 2345, 2407, 1156, 1217, 2346
2031, 2407, 1156, 1217, 2346, 2408, 1157, 1218, 2347
2032, 2408, 1157, 1218, 2347, 2409, 1158, 1219, 2348
2033, 2409, 1158, 1219, 2348, 2410, 1159, 1220, 2349
2034, 2410, 1159, 1220, 2349, 2411, 1160, 1221, 2350
2035, 2411, 1160, 1221, 2350, 2412, 1161, 1222, 2351
2036, 2412, 1161, 1222, 2351, 2413, 1162, 1223, 2352
2037, 2413, 1162, 1223, 2352, 2414, 1163, 1224, 2353
2038, 2414, 1163, 1224, 2353, 2415, 1164, 1225, 2354
2039, 2415, 1164, 1225, 2354, 2416, 1165, 1226, 2355
2040, 2416, 1165, 1226, 2355, 2417, 1166, 1227, 2356
2041, 2417, 1166, 1227, 2356, 2418, 1167, 1228, 2357
2042, 2418, 1167, 1228, 2357, 2419, 1168, 1229, 2358
2043, 2419, 1168, 1229, 2358, 2420, 1169, 1230, 2359
2044, 2420, 1169, 1230, 2359, 1309, 99, 100, 1308
2045, 119, 117, 18, 19, 2360, 2238, 1048, 1109
2046, 2360, 2238, 1048, 1109, 2361, 2239, 1049, 1110
2047, 2361, 2239, 1049, 1110, 2362, 2240, 1050, 1111
2048, 2362, 2240, 1050, 1111, 2363, 2241, 1051, 1112
2049, 2363, 2241, 1051, 1112, 2364, 2242, 1052, 1113
2050, 2364, 2242, 1052, 1113, 2365, 2243, 1053, 1114
2051, 2365, 2243, 1053, 1114, 2366, 2244, 1054, 1115
2052, 2366, 2244, 1054, 1115, 2367, 2245, 1055, 1116
2053, 2367, 2245, 1055, 1116, 2368, 2246, 1056, 1117
2054, 2368, 2246, 1056, 1117, 2369, 2247, 1057, 1118
2055, 2369, 2247, 1057, 1118, 2370, 2248, 1058, 1119
2056, 2370, 2248, 1058, 1119, 2371, 2249, 1059, 1120
2057, 2371, 2249, 1059, 1120, 2372, 2250, 1060, 1121
2058, 2372, 2250, 1060, 1121, 2373, 2251, 1061, 1122
2059, 2373, 2251, 1061, 1122, 2374, 2252, 1062, 1123
2060, 2374, 2252, 1062, 1123, 2375, 2253, 1063, 1124
2061, 2375, 2253, 1063, 1124, 2376, 2254, 1064, 1125
2062, 2376, 2254, 1064, 1125, 2377, 2255, 1065, 1126
2063, 2377, 2255, 1065, 1126, 2378, 2256, 1066, 1127
2064, 2378, 2256, 1066, 1127, 2379, 2257, 1067, 1128
2065, 2379, 2257, 1067, 1128, 2380, 2258, 1068, 1129
2066, 2380, 2258, 1068, 1129, 2381, 2259, 1069, 1130
2067, 2381, 2259, 1069, 1130, 2382, 2260, 1070, 1131
2068, 2382, 2260, 1070, 1131, 2383, 2261, 1071, 1132
2069, 2383, 2261, 1071, 1132, 2384, 2262, 1072, 1133
2070, 2384, 2262, 1072, 1133, 2385, 2263, 1073, 1134
2071, 2385, 2263, 1073, 1134, 2386, 2264, 1074, 1135
2072, 2386, 2264, 1074, 1135, 2387, 2265, 1075, 1136
2073, 2387, 2265, 1075, 1136, 2388, 2266, 1076, 1137
2074, 2388, 2266, 1076, 1137, 2389, 2267, 1077, 1138
2075, 2389, 2267, 1077, 1138, 2390, 2268, 1078, 1139
2076, 2390, 2268, 1078, 1139, 2391, 2269, 1079, 1140
2077, 2391, 2269, 1079, 1140, 2392, 2270, 1080, 1141
2078, 2392, 2270, 1080, 1141, 2393, 2271, 1081, 1142
2079, 2393, 2271, 1081, 1142, 2394, 2272, 1082, 1143
2080, 2394, 2272, 1082, 1143, 2395, 2273, 1083, 1144
2081, 2395, 2273, 1083, 1144, 2396, 2274, 1084, 1145
2082, 2396, 2274, 1084, 1145, 2397, 2275, 1085, 1146
2083, 2397, 2275, 1085, 1146, 2398, 2276, 1086, 1147
2084, 2398, 2276, 1086, 1147, 2399, 2277, 1087, 1148
2085, 2399, 2277, 1087, 1148, 2400, 2278, 1088, 1149
2086, 2400, 2278, 1088, 1149, 2401, 2279, 1089, 1150
2087, 2401, 2279, 1089, 1150, 2402, 2280, 1090, 1151
2088, 2402, 2280, 1090, 1151, 2403, 2281, 1091, 1152
2089, 2403, 2281, 1091, 1152, 2404, 2282, 1092, 1153
2090, 2404, 2282, 1092, 1153, 2405, 2283, 1093, 1154
2091, 2405, 2283, 1093, 1154, 2406, 2284, 1094, 1155
2092, 2406, 2284, 1094, 1155, 2407, 2285, 1095, 1156
2093, 2407, 2285, 1095, 1156, 2408, 2286, 1096, 1157
2094, 2408, 2286, 1096, 1157, 2409, 2287, 1097, 1158
2095, 2409, 2287, 1097, 1158, 2410, 2288, 1098, 1159
2096, 2410, 2288, 1098, 1159, 2411, 2289, 1099, 1160
2097, 2411, 2289, 1099, 1160, 2412, 2290, 1100, 1161
2098, 2412, 2290, 1100, 1161, 2413, 2291, 1101, 1162
2099, 2413, 2291, 1101, 1162, 2414, 2292, 1102, 1163
2100, 2414, 2292, 1102, 1163, 2415, 2293, 1103, 1164
2101, 2415, 2293, 1103, 1164, 2416, 2294, 1104, 1165
2102, 2416, 2294, 1104, 1165, 2417, 2295, 1105, 1166
2103, 2417, 2295, 1105, 1166, 2418, 2296, 1106, 1167
2104, 2418, 2296, 1106, 1167, 2419, 2297, 1107, 1168
2105, 2419, 2297, 1107, 1168, 2420, 2298, 1108, 1169
2106, 2420, 2298, 1108, 1169, 1309, 1307, 98, 99
2107, 119, 118, 104, 117, 2360, 2299, 1445, 2238
2108, 2360, 2299, 1445, 2238, 2361, 2300, 1446, 2239
2109, 2361, 2300, 1446, 2239, 2362, 2301, 1447, 2240
2110, 2362, 2301, 1447, 2240, 2363, 2302, 1448, 2241
2111, 2363, 2302, 1448, 2241, 2364, 2303, 1449, 2242
2112, 2364, 2303, 1449, 2242, 2365, 2304, 1450, 2243
2113, 2365, 2304, 1450, 2243, 2366, 2305, 1451, 2244
2114, 2366, 2305, 1451, 2244, 2367, 2306, 1452, 2245
2115, 2367, 2306, 1452, 2245, 2368, 2307, 1453, 2246
2116, 2368, 2307, 1453, 2246, 2369, 2308, 1454, 2247
2117, 2369, 2308, 1454, 2247, 2370, 2309, 1455, 2248
2118, 2370, 2309, 1455, 2248, 2371, 2310, 1456, 2249
2119, 2371, 2310, 1456, 2249, 2372, 2311, 1457, 2250
2120, 2372, 2311, 1457, 2250, 2373, 2312, 1458, 2251
2121, 2373, 2312, 1458, 2251, 2374, 2313, 1459, 2252
2122, 2374, 2313, 1459, 2252, 2375, 2314, 1460, 2253
2123, 2375, 2314, 1460, 2253, 2376, 2315, 1461, 2254
2124, 2376, 2315, 1461, 2254, 2377, 2316, 1462, 2255
2125, 2377, 2316, 1462, 2255, 2378, 2317, 1463, 2256
2126, 2378, 2317, 1463, 2256, 2379, 2318, 1464, 2257
2127, 2379, 2318, 1464, 2257, 2380, 2319, 1465, 2258
2128, 2380, 2319, 1465, 2258, 2381, 2320, 1466, 2259
2129, 2381, 2320, 1466, 2259, 2382, 2321, 1467, 2260
2130, 2382, 2321, 1467, 2260, 2383, 2322, 1468, 2261
2131, 2383, 2322, 1468, 2261, 2384, 2323, 1469, 2262
2132, 2384, 2323, 1469, 2262, 2385, 2324, 1470, 2263
2133, 2385, 2324, 1470, 2263, 2386, 2325, 1471, 2264
2134, 2386, 2325, 1471, 2264, 2387, 2326, 1472, 2265
2135, 2387, 2326, 1472, 2265, 2388, 2327, 1473, 2266
2136, 2388, 2327, 1473, 2266, 2389, 2328, 1474, 2267
2137, 2389, 2328, 1474, 2267, 2390, 2329, 1475, 2268
2138, 2390, 2329, 1475, 2268, 2391, 2330, 1476, 2269
2139, 2391, 2330, 1476, 2269, 2392, 2331, 1477, 2270
2140, 2392, 2331, 1477, 2270, 2393, 2332, 1478, 2271
2141, 2393, 2332, 1478, 2271, 2394, 2333, 1479, 2272
2142, 2394, 2333, 1479, 2272, 2395, 2334, 1480, 2273
2143, 2395, 2334, 1480, 2273, 2396, 2335, 1481, 2274
2144, 2396, 2335, 1481, 2274, 2397, 2336, 1482, 2275
2145, 2397, 2336, 1482, 2275, 2398, 2337, 1483, 2276
2146, 2398, 2337, 1483, 2276, 2399, 2338, 1484, 2277
2147, 2399, 2338, 1484, 2277, 2400, 2339, 1485, 2278
2148, 2400, 2339, 1485, 2278, 2401, 2340, 1486, 2279
2149, 2401, 2340, 1486, 2279, 2402, 2341, 1487, 2280
2150, 2402, 2341, 1487, 2280, 2403, 2342, 1488, 2281
2151, 2403, 2342, 1488, 2281, 2404, 2343, 1489, 2282
2152, 2404, 2343, 1489, 2282, 2405, 2344, 1490, 2283
2153, 2405, 2344, 1490, 2283, 2406, 2345, 1491, 2284
2154, 2406, 2345, 1491, 2284, 2407, 2346, 1492, 2285
2155, 2407, 2346, 1492, 2285, 2408, 2347, 1493, 2286
2156, 2408, 2347, 1493, 2286, 2409, 2348, 1494, 2287
2157, 2409, 2348, 1494, 2287, 2410, 2349, 1495, 2288
2158, 2410, 2349, 1495, 2288, 2411, 2350, 1496, 2289
2159, 2411, 2350, 1496, 2289, 2412, 2351, 1497, 2290
2160, 2412, 2351, 1497, 2290, 2413, 2352, 1498, 2291
2161, 2413, 2352, 1498, 2291, 2414, 2353, 1499, 2292
2162, 2414, 2353, 1499, 2292, 2415, 2354, 1500, 2293
2163, 2415, 2354, 1500, 2293, 2416, 2355, 1501, 2294
2164, 2416, 2355, 1501, 2294, 2417, 2356, 1502, 2295
2165, 2417, 2356, 1502, 2295, 2418, 2357, 1503, 2296
2166, 2418, 2357, 1503, 2296, 2419, 2358, 1504, 2297
2167, 2419, 2358, 1504, 2297, 2420, 2359, 1505, 2298
2168, 2420, 2359, 1505, 2298, 1309, 1308, 1294, 1307
2169, 123, 120, 102, 122, 2604, 2421, 1323, 2543
2170, 2604, 2421, 1323, 2543, 2605, 2422, 1324, 2544
2171, 2605, 2422, 1324, 2544, 2606, 2423, 1325, 2545
2172, 2606, 2423, 1325, 2545, 2607, 2424, 1326, 2546
2173, 2607, 2424, 1326, 2546, 2608, 2425, 1327, 2547
2174, 2608, 2425, 1327, 2547, 2609, 2426, 1328, 2548
2175, 2609, 2426, 1328, 2548, 2610, 2427, 1329, 2549
2176, 2610, 2427, 1329, 2549, 2611, 2428, 1330, 2550
2177, 2611, 2428, 1330, 2550, 2612, 2429, 1331, 2551
2178, 2612, 2429, 1331, 2551, 2613, 2430, 1332, 2552
2179, 2613, 2430, 1332, 2552, 2614, 2431, 1333, 2553
2180, 2614, 2431, 1333, 2553, 2615, 2432, 1334, 2554
2181, 2615, 2432, 1334, 2554, 2616, 2433, 1335, 2555
2182, 2616, 2433, 1335, 2555, 2617, 2434, 1336, 2556
2183, 2617, 2434, 1336, 2556, 2618, 2435, 1337, 2557
2184, 2618, 2435, 1337, 2557, 2619, 2436, 1338, 2558
2185, 2619, 2436, 1338, 2558, 2620, 2437, 1339, 2559
2186, 2620, 2437, 1339, 2559, 2621, 2438, 1340, 2560
2187, 2621, 2438, 1340, 2560, 2622, 2439, 1341, 2561
2188, 2622, 2439, 1341, 2561, 2623, 2440, 1342, 2562
2189, 2623, 2440, 1342, 2562, 2624, 2441, 1343, 2563
2190, 2624, 2441, 1343, 2563, 2625, 2442, 1344, 2564
2191, 2625, 2442, 1344, 2564, 2626, 2443, 1345, 2565
2192, 2626, 2443, 1345, 2565, 2627, 2444, 1346, 2566
2193, 2627, 2444, 1346, 2566, 2628, 2445, 1347, 2567
2194, 2628, 2445, 1347, 2567, 2629, 2446, 1348, 2568
2195, 2629, 2446, 1348, 2568, 2630, 2447, 1349, 2569
2196, 2630, 2447, 1349, 2569, 2631, 2448, 1350, 2570
2197, 2631, 2448, 1350, 2570, 2632, 2449, 1351, 2571
2198, 2632, 2449, 1351, 2571, 2633, 2450, 1352, 2572
2199, 2633, 2450, 1352, 2572, 2634, 2451, 1353, 2573
2200, 2634, 2451, 1353, 2573, 2635, 2452, 1354, 2574
2201, 2635, 2452, 1354, 2574, 2636, 2453, 1355, 2575
2202, 2636, 2453, 1355, 2575, 2637, 2454, 1356, 2576
2203, 2637, 2454, 1356, 2576, 2638, 2455, 1357, 2577
2204, 2638, 2455, 1357, 2577, 2639, 2456, 1358, 2578
2205, 2639, 2456, 1358, 2578, 2640, 2457, 1359, 2579
2206, 2640, 2457, 1359, 2579, 2641, 2458, 1360, 2580
2207, 2641, 2458, 1360, 2580, 2642, 2459, 1361, 2581
2208, 2642, 2459, 1361, 2581, 2643, 2460, 1362, 2582
2209, 2643, 2460, 1362, 2582, 2644, 2461, 1363, 2583
2210, 2644, 2461, 1363, 2583, 2645, 2462, 1364, 2584
2211, 2645, 2462, 1364, 2584, 2646, 2463, 1365, 2585
2212, 2646, 2463, 1365, 2585, 2647, 2464, 1366, 2586
2213, 2647, 2464, 1366, 2586, 2648, 2465, 1367, 2587
2214, 2648, 2465, 1367, 2587, 2649, 2466, 1368, 2588
2215, 2649, 2466, 1368, 2588, 2650, 2467, 1369, 2589
2216, 2650, 2467, 1369, 2589, 2651, 2468, 1370, 2590
2217, 2651, 2468, 1370, 2590, 2652, 2469, 1371, 2591
2218, 2652, 2469, 1371, 2591, 2653, 2470, 1372, 2592
2219, 2653, 2470, 1372, 2592, 2654, 2471, 1373, 2593
2220, 2654, 2471, 1373, 2593, 2655, 2472, 1374, 2594
2221, 2655, 2472, 1374, 2594, 2656, 2473, 1375, 2595
2222, 2656, 2473, 1375, 2595, 2657, 2474, 1376, 2596
2223, 2657, 2474, 1376, 2596, 2658, 2475, 1377, 2597
2224, 2658, 2475, 1377, 2597, 2659, 2476, 1378, 2598
2225, 2659, 2476, 1378, 2598, 2660, 2477, 1379, 2599
2226, 2660, 2477, 1379, 2599, 2661, 2478, 1380, 2600
2227, 2661, 2478, 1380, 2600, 2662, 2479, 1381, 2601
2228, 2662, 2479, 1381, 2601, 2663, 2480, 1382, 2602
2229, 2663, 2480, 1382, 2602, 2664, 2481, 1383, 2603
2230, 2664, 2481, 1383, 2603, 1313, 1310, 1292, 1312
2231, 123, 11, 12, 120, 2604, 621, 682, 2421
2232, 2604, 621, 682, 2421, 2605, 622, 683, 2422
2233, 2605, 622, 683, 2422, 2606, 623, 684, 2423
2234, 2606, 623, 684, 2423, 2607, 624, 685, 2424
2235, 2607, 624, 685, 2424, 2608, 625, 686, 2425
2236, 2608, 625, 686, 2425, 2609, 626, 687, 2426
2237, 2609, 626, 687, 2426, 2610, 627, 688, 2427
2238, 2610, 627, 688, 2427, 2611, 628, 689, 2428
2239, 2611, 628, 689, 2428, 2612, 629, 690, 2429
2240, 2612, 629, 690, 2429, 2613, 630, 691, 2430
2241, 2613, 630, 691, 2430, 2614, 631, 692, 2431
2242, 2614, 631, 692, 2431, 2615, 632, 693, 2432
2243, 2615, 632, 693, 2432, 2616, 633, 694, 2433
2244, 2616, 633, 694, 2433, 2617, 634, 695, 2434
2245, 2617, 634, 695, 2434, 2618, 635, 696, 2435
2246, 2618, 635, 696, 2435, 2619, 636, 697, 2436
2247, 2619, 636, 697, 2436, 2620, 637, 698, 2437
2248, 2620, 637, 698, 2437, 2621, 638, 699, 2438
2249, 2621, 638, 699, 2438, 2622, 639, 700, 2439
2250, 2622, 639, 700, 2439, 2623, 640, 701, 2440
2251, 2623, 640, 701, 2440, 2624, 641, 702, 2441
2252, 2624, 641, 702, 2441, 2625, 642, 703, 2442
2253, 2625, 642, 703, 2442, 2626, 643, 704, 2443
2254, 2626, 643, 704, 2443, 2627, 644, 705, 2444
2255, 2627, 644, 705, 2444, 2628, 645, 706, 2445
2256, 2628, 645, 706, 2445, 2629, 646, 707, 2446
2257, 2629, 646, 707, 2446, 2630, 647, 708, 2447
2258, 2630, 647, 708, 2447, 2631, 648, 709, 2448
2259, 2631, 648, 709, 2448, 2632, 649, 710, 2449
2260, 2632, 649, 710, 2449, 2633, 650, 711, 2450
2261, 2633, 650, 711, 2450, 2634, 651, 712, 2451
2262, 2634, 651, 712, 2451, 2635, 652, 713, 2452
2263, 2635, 652, 713, 2452, 2636, 653, 714, 2453
2264, 2636, 653, 714, 2453, 2637, 654, 715, 2454
2265, 2637, 654, 715, 2454, 2638, 655, 716, 2455
2266, 2638, 655, 716, 2455, 2639, 656, 717, 2456
2267, 2639, 656, 717, 2456, 2640, 657, 718, 2457
2268, 2640, 657, 718, 2457, 2641, 658, 719, 2458
2269, 2641, 658, 719, 2458, 2642, 659, 720, 2459
2270, 2642, 659, 720, 2459, 2643, 660, 721, 2460
2271, 2643, 660, 721, 2460, 2644, 661, 722, 2461
2272, 2644, 661, 722, 2461, 2645, 662, 723, 2462
2273, 2645, 662, 723, 2462, 2646, 663, 724, 2463
2274, 2646, 663, 724, 2463, 2647, 664, 725, 2464
2275, 2647, 664, 725, 2464, 2648, 665, 726, 2465
2276, 2648, 665, 726, 2465, 2649, 666, 727, 2466
2277, 2649, 666, 727, 2466, 2650, 667, 728, 2467
2278, 2650, 667, 728, 2467, 2651, 668, 729, 2468
2279, 2651, 668, 729, 2468, 2652, 669, 730, 2469
2280, 2652, 669, 730, 2469, 2653, 670, 731, 2470
2281, 2653, 670, 731, 2470, 2654, 671, 732, 2471
2282, 2654, 671, 732, 2471, 2655, 672, 733, 2472
2283, 2655, 672, 733, 2472, 2656, 673, 734, 2473
2284, 2656, 673, 734, 2473, 2657, 674, 735, 2474
2285, 2657, 674, 735, 2474, 2658, 675, 736, 2475
2286, 2658, 675, 736, 2475, 2659, 676, 737, 2476
2287, 2659, 676, 737, 2476, 2660, 677, 738, 2477
2288, 2660, 677, 738, 2477, 2661, 678, 739, 2478
2289, 2661, 678, 739, 2478, 2662, 679, 740, 2479
2290, 2662, 679, 740, 2479, 2663, 680, 741, 2480
2291, 2663, 680, 741, 2480, 2664, 681, 742, 2481
2292, 2664, 681, 742, 2481, 1313, 91, 92, 1310
2293, 123, 121, 10, 11, 2604, 2482, 560, 621
2294, 2604, 2482, 560, 621, 2605, 2483, 561, 622
2295, 2605, 2483, 561, 622, 2606, 2484, 562, 623
2296, 2606, 2484, 562, 623, 2607, 2485, 563, 624
2297, 2607, 2485, 563, 624, 2608, 2486, 564, 625
2298, 2608, 2486, 564, 625, 2609, 2487, 565, 626
2299, 2609, 2487, 565, 626, 2610, 2488, 566, 627
2300, 2610, 2488, 566, 627, 2611, 2489, 567, 628
2301, 2611, 2489, 567, 628, 2612, 2490, 568, 629
2302, 2612, 2490, 568, 629, 2613, 2491, 569, 630
2303, 2613, 2491, 569, 630, 2614, 2492, 570, 631
2304, 2614, 2492, 570, 631, 2615, 2493, 571, 632
2305, 2615, 2493, 571, 632, 2616, 2494, 572, 633
2306, 2616, 2494, 572, 633, 2617, 2495, 573, 634
2307, 2617, 2495, 573, 634, 2618, 2496, 574, 635
2308, 2618, 2496, 574, 635, 2619, 2497, 575, 636
2309, 2619, 2497, 575, 636, 2620, 2498, 576, 637
2310, 2620, 2498, 576, 637, 2621, 2499, 577, 638
2311, 2621, 2499, 577, 638, 2622, 2500, 578, 639
2312, 2622, 2500, 578, 639, 2623, 2501, 579, 640
2313, 2623, 2501, 579, 640, 2624, 2502, 580, 641
2314, 2624, 2502, 580, 641, 2625, 2503, 581, 642
2315, 2625, 2503, 581, 642, 2626, 2504, 582, 643
2316, 2626, 2504, 582, 643, 2627, 2505, 583, 644
2317, 2627, 2505, 583, 644, 2628, 2506, 584, 645
2318, 2628, 2506, 584, 645, 2629, 2507, 585, 646
2319, 2629, 2507, 585, 646, 2630, 2508, 586, 647
2320, 2630, 2508, 586, 647, 2631, 2509, 587, 648
2321, 2631, 2509, 587, 648, 2632, 2510, 588, 649
2322, 2632, 2510, 588, 649, 2633, 2511, 589, 650
2323, 2633, 2511, 589, 650, 2634, 2512, 590, 651
2324, 2634, 2512, 590, 651, 2635, 2513, 591, 652
2325, 2635, 2513, 591, 652, 2636, 2514, 592, 653
2326, 2636, 2514, 592, 653, 2637, 2515, 593, 654
2327, 2637, 2515, 593, 654, 2638, 2516, 594, 655
2328, 2638, 2516, 594, 655, 2639, 2517, 595, 656
2329, 2639, 2517, 595, 656, 2640, 2518, 596, 657
2330, 2640, 2518, 596, 657, 2641, 2519, 597, 658
2331, 2641, 2519, 597, 658, 2642, 2520, 598, 659
2332, 2642, 2520, 598, 659, 2643, 2521, 599, 660
2333, 2643, 2521, 599, 660, 2644, 2522, 600, 661
2334, 2644, 2522, 600, 661, 2645, 2523, 601, 662
2335, 2645, 2523, 601, 662, 2646, 2524, 602, 663
2336, 2646, 2524, 602, 663, 2647, 2525, 603, 664
2337, 2647, 2525, 603, 664, 2648, 2526, 604, 665
2338, 2648, 2526, 604, 665, 2649, 2527, 605, 666
2339, 2649, 2527, 605, 666, 2650, 2528, 606, 667
2340, 2650, 2528, 606, 667, 2651, 2529, 607, 668
2341, 2651, 2529, 607, 668, 2652, 2530, 608, 669
2342, 2652, 2530, 608, 669, 2653, 2531, 609, 670
2343, 2653, 2531, 609, 670, 2654, 2532, 610, 671
2344, 2654, 2532, 610, 671, 2655, 2533, 611, 672
2345, 2655, 2533, 611, 672, 2656, 2534, 612, 673
2346, 2656, 2534, 612, 673, 2657, 2535, 613, 674
2347, 2657, 2535, 613, 674, 2658, 2536, 614, 675
2348, 2658, 2536, 614, 675, 2659, 2537, 615, 676
2349, 2659, 2537, 615, 676, 2660, 2538, 616, 677
2350, 2660, 2538, 616, 677, 2661, 2539, 617, 678
2351, 2661, 2539, 617, 678, 2662, 2540, 618, 679
2352, 2662, 2540, 618, 679, 2663, 2541, 619, 680
2353, 2663, 2541, 619, 680, 2664, 2542, 620, 681
2354, 2664, 2542, 620, 681, 1313, 1311, 90, 91
2355, 123, 122, 105, 121, 2604, 2543, 1506, 2482
2356, 2604, 2543, 1506, 2482, 2605, 2544, 1507, 2483
2357, 2605, 2544, 1507, 2483, 2606, 2545, 1508, 2484
2358, 2606, 2545, 1508, 2484, 2607, 2546, 1509, 2485
2359, 2607, 2546, 1509, 2485, 2608, 2547, 1510, 2486
2360, 2608, 2547, 1510, 2486, 2609, 2548, 1511, 2487
2361, 2609, 2548, 1511, 2487, 2610, 2549, 1512, 2488
2362, 2610, 2549, 1512, 2488, 2611, 2550, 1513, 2489
2363, 2611, 2550, 1513, 2489, 2612, 2551, 1514, 2490
2364, 2612, 2551, 1514, 2490, 2613, 2552, 1515, 2491
2365, 2613, 2552, 1515, 2491, 2614, 2553, 1516, 2492
2366, 2614, 2553, 1516, 2492, 2615, 2554, 1517, 2493
2367, 2615, 2554, 1517, 2493, 2616, 2555, 1518, 2494
2368, 2616, 2555, 1518, 2494, 2617, 2556, 1519, 2495
2369, 2617, 2556, 1519, 2495, 2618, 2557, 1520, 2496
2370, 2618, 2557, 1520, 2496, 2619, 2558, 1521, 2497
2371, 2619, 2558, 1521, 2497, 2620, 2559, 1522, 2498
2372, 2620, 2559, 1522, 2498, 2621, 2560, 1523, 2499
2373, 2621, 2560, 1523, 2499, 2622, 2561, 1524, 2500
2374, 2622, 2561, 1524, 2500, 2623, 2562, 1525, 2501
2375, 2623, 2562, 1525, 2501, 2624, 2563, 1526, 2502
2376, 2624, 2563, 1526, 2502, 2625, 2564, 1527, 2503
2377, 2625, 2564, 1527, 2503, 2626, 2565, 1528, 2504
2378, 2626, 2565, 1528, 2504, 2627, 2566, 1529, 2505
2379, 2627, 2566, 1529, 2505, 2628, 2567, 1530, 2506
2380, 2628, 2567, 1530, 2506, 2629, 2568, 1531, 2507
2381, 2629, 2568, 1531, 2507, 2630, 2569, 1532, 2508
2382, 2630, 2569, 1532, 2508, 2631, 2570, 1533, 2509
2383, 2631, 2570, 1533, 2509, 2632, 2571, 1534, 2510
2384, 2632, 2571, 1534, 2510, 2633, 2572, 1535, 2511
2385, 2633, 2572, 1535, 2511, 2634, 2573, 1536, 2512
2386, 2634, 2573, 1536, 2512, 2635, 2574, 1537, 2513
2387, 2635, 2574, 1537, 2513, 2636, 2575, 1538, 2514
2388, 2636, 2575, 1538, 2514, 2637, 2576, 1539, 2515
2389, 2637, 2576, 1539, 2515, 2638, 2577, 1540, 2516
2390, 2638, 2577, 1540, 2516, 2639, 2578, 1541, 2517
2391, 2639, 2578, 1541, 2517, 2640, 2579, 1542, 2518
2392, 2640, 2579, 1542, 2518, 2641, 2580, 1543, 2519
2393, 2641, 2580, 1543, 2519, 2642, 2581, 1544, 2520
2394, 2642, 2581, 1544, 2520, 2643, 2582, 1545, 2521
2395, 2643, 2582, 1545, 2521, 2644, 2583, 1546, 2522
2396, 2644, 2583, 1546, 2522, 2645, 2584, 1547, 2523
2397, 2645, 2584, 1547, 2523, 2646, 2585, 1548, 2524
2398, 2646, 2585, 1548, 2524, 2647, 2586, 1549, 2525
2399, 2647, 2586, 1549, 2525, 2648, 2587, 1550, 2526
2400, 2648, 2587, 1550, 2526, 2649, 2588, 1551, 2527
2401, 2649, 2588, 1551, 2527, 2650, 2589, 1552, 2528
2402, 2650, 2589, 1552, 2528, 2651, 2590, 1553, 2529
2403, 2651, 2590, 1553, 2529, 2652, 2591, 1554, 2530
2404, 2652, 2591, 1554, 2530, 2653, 2592, 1555, 2531
2405, 2653, 2592, 1555, 2531, 2654, 2593, 1556, 2532
2406, 2654, 2593, 1556, 2532, 2655, 2594, 1557, 2533
2407, 2655, 2594, 1557, 2533, 2656, 2595, 1558, 2534
2408, 2656, 2595, 1558, 2534, 2657, 2596, 1559, 2535
2409, 2657, 2596, 1559, 2535, 2658, 2597, 1560, 2536
2410, 2658, 2597, 1560, 2536, 2659, 2598, 1561, 2537
2411, 2659, 2598, 1561, 2537, 2660, 2599, 1562, 2538
2412, 2660, 2599, 1562, 2538, 2661, 2600, 1563, 2539
2413, 2661, 2600, 1563, 2539, 2662, 2601, 1564, 2540
2414, 2662, 2601, 1564, 2540, 2663, 2602, 1565, 2541
2415, 2663, 2602, 1565, 2541, 2664, 2603, 1566, 2542
2416, 2664, 2603, 1566, 2542, 1313, 1312, 1295, 1311
2417, 126, 5, 6, 125, 2787, 255, 316, 2726
2418, 2787, 255, 316, 2726, 2788, 256, 317, 2727
2419, 2788, 256, 317, 2727, 2789, 257, 318, 2728
2420, 2789, 257, 318, 2728, 2790, 258, 319, 2729
2421, 2790, 258, 319, 2729, 2791, 259, 320, 2730
2422, 2791, 259, 320, 2730, 2792, 260, 321, 2731
2423, 2792, 260, 321, 2731, 2793, 261, 322, 2732
2424, 2793, 261, 322, 2732, 2794, 262, 323, 2733
2425, 2794, 262, 323, 2733, 2795, 263, 324, 2734
2426, 2795, 263, 324, 2734, 2796, 264, 325, 2735
2427, 2796, 264, 325, 2735, 2797, 265, 326, 2736
2428, 2797, 265, 326, 2736, 2798, 266, 327, 2737
2429, 2798, 266, 327, 2737, 2799, 267, 328, 2738
2430, 2799, 267, 328, 2738, 2800, 268, 329, 2739
2431, 2800, 268, 329, 2739, 2801, 269, 330, 2740
2432, 2801, 269, 330, 2740, 2802, 270, 331, 2741
2433, 2802, 270, 331, 2741, 2803, 271, 332, 2742
2434, 2803, 271, 332, 2742, 2804, 272, 333, 2743
2435, 2804, 272, 333, 2743, 2805, 273, 334, 2744
2436, 2805, 273, 334, 2744, 2806, 274, 335, 2745
2437, 2806, 274, 335, 2745, 2807, 275, 336, 2746
2438, 2807, 275, 336, 2746, 2808, 276, 337, 2747
2439, 2808, 276, 337, 2747, 2809, 277, 338, 2748
2440, 2809, 277, 338, 2748, 2810, 278, 339, 2749
2441, 2810, 278, 339, 2749, 2811, 279, 340, 2750
2442, 2811, 279, 340, 2750, 2812, 280, 341, 2751
2443, 2812, 280, 341, 2751, 2813, 281, 342, 2752
2444, 2813, 281, 342, 2752, 2814, 282, 343, 2753
2445, 2814, 282, 343, 2753, 2815, 283, 344, 2754
2446, 2815, 283, 344, 2754, 2816, 284, 345, 2755
2447, 2816, 284, 345, 2755, 2817, 285, 346, 2756
2448, 2817, 285, 346, 2756, 2818, 286, 347, 2757
2449, 2818, 286, 347, 2757, 2819, 287, 348, 2758
2450, 2819, 287, 348, 2758, 2820, 288, 349, 2759
2451, 2820, 288, 349, 2759, 2821, 289, 350, 2760
2452, 2821, 289, 350, 2760, 2822, 290, 351, 2761
2453, 2822, 290, 351, 2761, 2823, 291, 352, 2762
2454, 2823, 291, 352, 2762, 2824, 292, 353, 2763
2455, 2824, 292, 353, 2763, 2825, 293, 354, 2764
2456, 2825, 293, 354, 2764, 2826, 294, 355, 2765
2457, 2826, 294, 355, 2765, 2827, 295, 356, 2766
2458, 2827, 295, 356, 2766, 2828, 296, 357, 2767
2459, 2828, 296, 357, 2767, 2829, 297, 358, 2768
2460, 2829, 297, 358, 2768, 2830, 298, 359, 2769
2461, 2830, 298, 359, 2769, 2831, 299, 360, 2770
2462, 2831, 299, 360, 2770, 2832, 300, 361, 2771
2463, 2832, 300, 361, 2771, 2833, 301, 362, 2772
2464, 2833, 301, 362, 2772, 2834, 302, 363, 2773
2465, 2834, 302, 363, 2773, 2835, 303, 364, 2774
2466, 2835, 303, 364, 2774, 2836, 304, 365, 2775
2467, 2836, 304, 365, 2775, 2837, 305, 366, 2776
2468, 2837, 305, 366, 2776, 2838, 306, 367, 2777
2469, 2838, 306, 367, 2777, 2839, 307, 368, 2778
2470, 2839, 307, 368, 2778, 2840, 308, 369, 2779
2471, 2840, 308, 369, 2779, 2841, 309, 370, 2780
2472, 2841, 309, 370, 2780, 2842, 310, 371, 2781
2473, 2842, 310, 371, 2781, 2843, 311, 372, 2782
2474, 2843, 311, 372, 2782, 2844, 312, 373, 2783
2475, 2844, 312, 373, 2783, 2845, 313, 374, 2784
2476, 2845, 313, 374, 2784, 2846, 314, 375, 2785
2477, 2846, 314, 375, 2785, 2847, 315, 376, 2786
2478, 2847, 315, 376, 2786, 1316, 85, 86, 1315
2479, 126, 112, 4, 5, 2787, 1933, 194, 255
2480, 2787, 1933, 194, 255, 2788, 1934, 195, 256
2481, 2788, 1934, 195, 256, 2789, 1935, 196, 257
2482, 2789, 1935, 196, 257, 2790, 1936, 197, 258
2483, 2790, 1936, 197, 258, 2791, 1937, 198, 259
2484, 2791, 1937, 198, 259, 2792, 1938, 199, 260
2485, 2792, 1938, 199, 260, 2793, 1939, 200, 261
2486, 2793, 1939, 200, 261, 2794, 1940, 201, 262
2487, 2794, 1940, 201, 262, 2795, 1941, 202, 263
2488, 2795, 1941, 202, 263, 2796, 1942, 203, 264
2489, 2796, 1942, 203, 264, 2797, 1943, 204, 265
2490, 2797, 1943, 204, 265, 2798, 1944, 205, 266
2491, 2798, 1944, 205, 266, 2799, 1945, 206, 267
2492, 2799, 1945, 206, 267, 2800, 1946, 207, 268
2493, 2800, 1946, 207, 268, 2801, 1947, 208, 269
2494, 2801, 1947, 208, 269, 2802, 1948, 209, 270
2495, 2802, 1948, 209, 270, 2803, 1949, 210, 271
2496, 2803, 1949, 210, 271, 2804, 1950, 211, 272
2497, 2804, 1950, 211, 272, 2805, 1951, 212, 273
2498, 2805, 1951, 212, 273, 2806, 1952, 213, 274
2499, 2806, 1952, 213, 274, 2807, 1953, 214, 275
2500, 2807, 1953, 214, 275, 2808, 1954, 215, 276
2501, 2808, 1954, 215, 276, 2809, 1955, 216, 277
2502, 2809, 1955, 216, 277, 2810, 1956, 217, 278
2503, 2810, 1956, 217, 278, 2811, 1957, 218, 279
2504, 2811, 1957, 218, 279, 2812, 1958, 219, 280
2505, 2812, 1958, 219, 280, 2813, 1959, 220, 281
2506, 2813, 1959, 220, 281, 2814, 1960, 221, 282
2507, 2814, 1960, 221, 282, 2815, 1961, 222, 283
2508, 2815, 1961, 222, 283, 2816, 1962, 223, 284
2509, 2816, 1962, 223, 284, 2817, 1963, 224, 285
2510, 2817, 1963, 224, 285, 2818, 1964, 225, 286
2511, 2818, 1964, 225, 286, 2819, 1965, 226, 287
2512, 2819, 1965, 226, 287, 2820, 1966, 227, 288
2513, 2820, 1966, 227, 288, 2821, 1967, 228, 289
2514, 2821, 1967, 228, 289, 2822, 1968, 229, 290
2515, 2822, 1968, 229, 290, 2823, 1969, 230, 291
2516, 2823, 1969, 230, 291, 2824, 1970, 231, 292
2517, 2824, 1970, 231, 292, 2825, 1971, 232, 293
2518, 2825, 1971, 232, 293, 2826, 1972, 233, 294
2519, 2826, 1972, 233, 294, 2827, 1973, 234, 295
2520, 2827, 1973, 234, 295, 2828, 1974, 235, 296
2521, 2828, 1974, 235, 296, 2829, 1975, 236, 297
2522, 2829, 1975, 236, 297, 2830, 1976, 237, 298
2523, 2830, 1976, 237, 298, 2831, 1977, 238, 299
2524, 2831, 1977, 238, 299, 2832, 1978, 239, 300
2525, 2832, 1978, 239, 300, 2833, 1979, 240, 301
2526, 2833, 1979, 240, 301, 2834, 1980, 241, 302
2527, 2834, 1980, 241, 302, 2835, 1981, 242, 303
2528, 2835, 1981, 242, 303, 2836, 1982, 243, 304
2529, 2836, 1982, 243, 304, 2837, 1983, 244, 305
2530, 2837, 1983, 244, 305, 2838, 1984, 245, 306
2531, 2838, 1984, 245, 306, 2839, 1985, 246, 307
2532, 2839, 1985, 246, 307, 2840, 1986, 247, 308
2533, 2840, 1986, 247, 308, 2841, 1987, 248, 309
2534, 2841, 1987, 248, 309, 2842, 1988, 249, 310
2535, 2842, 1988, 249, 310, 2843, 1989, 250, 311
2536, 2843, 1989, 250, 311, 2844, 1990, 251, 312
2537, 2844, 1990, 251, 312, 2845, 1991, 252, 313
2538, 2845, 1991, 252, 313, 2846, 1992, 253, 314
2539, 2846, 1992, 253, 314, 2847, 1993, 254, 315
2540, 2847, 1993, 254, 315, 1316, 1302, 84, 85
2541, 126, 124, 103, 112, 2787, 2665, 1384, 1933
2542, 2787, 2665, 1384, 1933, 2788, 2666, 1385, 1934
2543, 2788, 2666, 1385, 1934, 2789, 2667, 1386, 1935
2544, 2789, 2667, 1386, 1935, 2790, 2668, 1387, 1936
2545, 2790, 2668, 1387, 1936, 2791, 2669, 1388, 1937
2546, 2791, 2669, 1388, 1937, 2792, 2670, 1389, 1938
2547, 2792, 2670, 1389, 1938, 2793, 2671, 1390, 1939
2548, 2793, 2671, 1390, 1939, 2794, 2672, 1391, 1940
2549, 2794, 2672, 1391, 1940, 2795, 2673, 1392, 1941
2550, 2795, 2673, 1392, 1941, 2796, 2674, 1393, 1942
2551, 2796, 2674, 1393, 1942, 2797, 2675, 1394, 1943
2552, 2797, 2675, 1394, 1943, 2798, 2676, 1395, 1944
2553, 2798, 2676, 1395, 1944, 2799, 2677, 1396, 1945
2554, 2799, 2677, 1396, 1945, 2800, 2678, 1397, 1946
2555, 2800, 2678, 1397, 1946, 2801, 2679, 1398, 1947
2556, 2801, 2679, 1398, 1947, 2802, 2680, 1399, 1948
2557, 2802, 2680, 1399, 1948, 2803, 2681, 1400, 1949
2558, 2803, 2681, 1400, 1949, 2804, 2682, 1401, 1950
2559, 2804, 2682, 1401, 1950, 2805, 2683, 1402, 1951
2560, 2805, 2683, 1402, 1951, 2806, 2684, 1403, 1952
2561, 2806, 2684, 1403, 1952, 2807, 2685, 1404, 1953
2562, 2807, 2685, 1404, 1953, 2808, 2686, 1405, 1954
2563, 2808, 2686, 1405, 1954, 2809, 2687, 1406, 1955
2564, 2809, 2687, 1406, 1955, 2810, 2688, 1407, 1956
2565, 2810, 2688, 1407, 1956, 2811, 2689, 1408, 1957
2566, 2811, 2689, 1408, 1957, 2812, 2690, 1409, 1958
2567, 2812, 2690, 1409, 1958, 2813, 2691, 1410, 1959
2568, 2813, 2691, 1410, 1959, 2814, 2692, 1411, 1960
2569, 2814, 2692, 1411, 1960, 2815, 2693, 1412, 1961
2570, 2815, 2693, 1412, 1961, 2816, 2694, 1413, 1962
2571, 2816, 2694, 1413, 1962, 2817, 2695, 1414, 1963
2572, 2817, 2695, 1414, 1963, 2818, 2696, 1415, 1964
2573, 2818, 2696, 1415, 1964, 2819, 2697, 1416, 1965
2574, 2819, 2697, 1416, 1965, 2820, 2698, 1417, 1966
2575, 2820, 2698, 1417, 1966, 2821, 2699, 1418, 1967
2576, 2821, 2699, 1418, 1967, 2822, 2700, 1419, 1968
2577, 2822, 2700, 1419, 1968, 2823, 2701, 1420, 1969
2578, 2823, 2701, 1420, 1969, 2824, 2702, 1421, 1970
2579, 2824, 2702, 1421, 1970, 2825, 2703, 1422, 1971
2580, 2825, 2703, 1422, 1971, 2826, 2704, 1423, 1972
2581, 2826, 2704, 1423, 1972, 2827, 2705, 1424, 1973
2582, 2827, 2705, 1424, 1973, 2828, 2706, 1425, 1974
2583, 2828, 2706, 1425, 1974, 2829, 2707, 1426, 1975
2584, 2829, 2707, 1426, 1975, 2830, 2708, 1427, 1976
2585, 2830, 2708, 1427, 1976, 2831, 2709, 1428, 1977
2586, 2831, 2709, 1428, 1977, 2832, 2710, 1429, 1978
2587, 2832, 2710, 1429, 1978, 2833, 2711, 1430, 1979
2588, 2833, 2711, 1430, 1979, 2834, 2712, 1431, 1980
2589, 2834, 2712, 1431, 1980, 2835, 2713, 1432, 1981
2590, 2835, 2713, 1432, 1981, 2836, 2714, 1433, 1982
2591, 2836, 2714, 1433, 1982, 2837, 2715, 1434, 1983
2592, 2837, 2715, 1434, 1983, 2838, 2716, 1435, 1984
2593, 2838, 2716, 1435, 1984, 2839, 2717, 1436, 1985
2594, 2839, 2717, 1436, 1985, 2840, 2718, 1437, 1986
2595, 2840, 2718, 1437, 1986, 2841, 2719, 1438, 1987
2596, 2841, 2719, 1438, 1987, 2842, 2720, 1439, 1988
2597, 2842, 2720, 1439, 1988, 2843, 2721, 1440, 1989
2598, 2843, 2721, 1440, 1989, 2844, 2722, 1441, 1990
2599, 2844, 2722, 1441, 1990, 2845, 2723, 1442, 1991
2600, 2845, 2723, 1442, 1991, 2846, 2724, 1443, 1992
2601, 2846, 2724, 1443, 1992, 2847, 2725, 1444, 1993
2602, 2847, 2725, 1444, 1993, 1316, 1314, 1293, 1302
2603, 126, 125, 105, 124, 2787, 2726, 1506, 2665
2604, 2787, 2726, 1506, 2665, 2788, 2727, 1507, 2666
2605, 2788, 2727, 1507, 2666, 2789, 2728, 1508, 2667
2606, 2789, 2728, 1508, 2667, 2790, 2729, 1509, 2668
2607, 2790, 2729, 1509, 2668, 2791, 2730, 1510, 2669
2608, 2791, 2730, 1510, 2669, 2792, 2731, 1511, 2670
2609, 2792, 2731, 1511, 2670, 2793, 2732, 1512, 2671
2610, 2793, 2732, 1512, 2671, 2794, 2733, 1513, 2672
2611, 2794, 2733, 1513, 2672, 2795, 2734, 1514, 2673
2612, 2795, 2734, 1514, 2673, 2796, 2735, 1515, 2674
2613, 2796, 2735, 1515, 2674, 2797, 2736, 1516, 2675
2614, 2797, 2736, 1516, 2675, 2798, 2737, 1517, 2676
2615, 2798, 2737, 1517, 2676, 2799, 2738, 1518, 2677
2616, 2799, 2738, 1518, 2677, 2800, 2739, 1519, 2678
2617, 2800, 2739, 1519, 2678, 2801, 2740, 1520, 2679
2618, 2801, 2740, 1520, 2679, 2802, 2741, 1521, 2680
2619, 2802, 2741, 1521, 2680, 2803, 2742, 1522, 2681
2620, 2803, 2742, 1522, 2681, 2804, 2743, 1523, 2682
2621, 2804, 2743, 1523, 2682, 2805, 2744, 1524, 2683
2622, 2805, 2744, 1524, 2683, 2806, 2745, 1525, 2684
2623, 2806, 2745, 1525, 2684, 2807, 2746, 1526, 2685
2624, 2807, 2746, 1526, 2685, 2808, 2747, 1527, 2686
2625, 2808, 2747, 1527, 2686, 2809, 2748, 1528, 2687
2626, 2809, 2748, 1528, 2687, 2810, 2749, 1529, 2688
2627, 2810, 2749, 1529, 2688, 2811, 2750, 1530, 2689
2628, 2811, 2750, 1530, 2689, 2812, 2751, 1531, 2690
2629, 2812, 2751, 1531, 2690, 2813, 2752, 1532, 2691
2630, 2813, 2752, 1532, 2691, 2814, 2753, 1533, 2692
2631, 2814, 2753, 1533, 2692, 2815, 2754, 1534, 2693
2632, 2815, 2754, 1534, 2693, 2816, 2755, 1535, 2694
2633, 2816, 2755, 1535, 2694, 2817, 2756, 1536, 2695
2634, 2817, 2756, 1536, 2695, 2818, 2757, 1537, 2696
2635, 2818, 2757, 1537, 2696, 2819, 2758, 1538, 2697
2636, 2819, 2758, 1538, 2697, 2820, 2759, 1539, 2698
2637, 2820, 2759, 1539, 2698, 2821, 2760, 1540, 2699
2638, 2821, 2760, 1540, 2699, 2822, 2761, 1541, 2700
2639, 2822, 2761, 1541, 2700, 2823, 2762, 1542, 2701
2640, 2823, 2762, 1542, 2701, 2824, 2763, 1543, 2702
2641, 2824, 2763, 1543, 2702, 2825, 2764, 1544, 2703
2642, 2825, 2764, 1544, 2703, 2826, 2765, 1545, 2704
2643, 2826, 2765, 1545, 2704, 2827, 2766, 1546, 2705
2644, 2827, 2766, 1546, 2705, 2828, 2767, 1547, 2706
2645, 2828, 2767, 1547, 2706, 2829, 2768, 1548, 2707
2646, 2829, 2768, 1548, 2707, 2830, 2769, 1549, 2708
2647, 2830, 2769, 1549, 2708, 2831, 2770, 1550, 2709
2648, 2831, 2770, 1550, 2709, 2832, 2771, 1551, 2710
2649, 2832, 2771, 1551, 2710, 2833, 2772, 1552, 2711
2650, 2833, 2772, 1552, 2711, 2834, 2773, 1553, 2712
2651, 2834, 2773, 1553, 2712, 2835, 2774, 1554, 2713
2652, 2835, 2774, 1554, 2713, 2836, 2775, 1555, 2714
2653, 2836, 2775, 1555, 2714, 2837, 2776, 1556, 2715
2654, 2837, 2776, 1556, 2715, 2838, 2777, 1557, 2716
2655, 2838, 2777, 1557, 2716, 2839, 2778, 1558, 2717
2656, 2839, 2778, 1558, 2717, 2840, 2779, 1559, 2718
2657, 2840, 2779, 1559, 2718, 2841, 2780, 1560, 2719
2658, 2841, 2780, 1560, 2719, 2842, 2781, 1561, 2720
2659, 2842, 2781, 1561, 2720, 2843, 2782, 1562, 2721
2660, 2843, 2782, 1562, 2721, 2844, 2783, 1563, 2722
2661, 2844, 2783, 1563, 2722, 2845, 2784, 1564, 2723
2662, 2845, 2784, 1564, 2723, 2846, 2785, 1565, 2724
2663, 2846, 2785, 1565, 2724, 2847, 2786, 1566, 2725
2664, 2847, 2786, 1566, 2725, 1316, 1315, 1295, 1314
2665, 128, 21, 1, 111, 2909, 1231, 22, 1872
2666, 2909, 1231, 22, 1872, 2910, 1232, 23, 1873
2667, 2910, 1232, 23, 1873, 2911, 1233, 24, 1874
2668, 2911, 1233, 24, 1874, 2912, 1234, 25, 1875
2669, 2912, 1234, 25, 1875, 2913, 1235, 26, 1876
2670, 2913, 1235, 26, 1876, 2914, 1236, 27, 1877
2671, 2914, 1236, 27, 1877, 2915, 1237, 28, 1878
2672, 2915, 1237, 28, 1878, 2916, 1238, 29, 1879
2673, 2916, 1238, 29, 1879, 2917, 1239, 30, 1880
2674, 2917, 1239, 30, 1880, 2918, 1240, 31, 1881
2675, 2918, 1240, 31, 1881, 2919, 1241, 32, 1882
2676, 2919, 1241, 32, 1882, 2920, 1242, 33, 1883
2677, 2920, 1242, 33, 1883, 2921, 1243, 34, 1884
2678, 2921, 1243, 34, 1884, 2922, 1244, 35, 1885
2679, 2922, 1244, 35, 1885, 2923, 1245, 36, 1886
2680, 2923, 1245, 36, 1886, 2924, 1246, 37, 1887
2681, 2924, 1246, 37, 1887, 2925, 1247, 38, 1888
2682, 2925, 1247, 38, 1888, 2926, 1248, 39, 1889
2683, 2926, 1248, 39, 1889, 2927, 1249, 40, 1890
2684, 2927, 1249, 40, 1890, 2928, 1250, 41, 1891
2685, 2928, 1250, 41, 1891, 2929, 1251, 42, 1892
2686, 2929, 1251, 42, 1892, 2930, 1252, 43, 1893
2687, 2930, 1252, 43, 1893, 2931, 1253, 44, 1894
2688, 2931, 1253, 44, 1894, 2932, 1254, 45, 1895
2689, 2932, 1254, 45, 1895, 2933, 1255, 46, 1896
2690, 2933, 1255, 46, 1896, 2934, 1256, 47, 1897
2691, 2934, 1256, 47, 1897, 2935, 1257, 48, 1898
2692, 2935, 1257, 48, 1898, 2936, 1258, 49, 1899
2693, 2936, 1258, 49, 1899, 2937, 1259, 50, 1900
2694, 2937, 1259, 50, 1900, 2938, 1260, 51, 1901
2695, 2938, 1260, 51, 1901, 2939, 1261, 52, 1902
2696, 2939, 1261, 52, 1902, 2940, 1262, 53, 1903
2697, 2940, 1262, 53, 1903, 2941, 1263, 54, 1904
2698, 2941, 1263, 54, 1904, 2942, 1264, 55, 1905
2699, 2942, 1264, 55, 1905, 2943, 1265, 56, 1906
2700, 2943, 1265, 56, 1906, 2944, 1266, 57, 1907
2701, 2944, 1266, 57, 1907, 2945, 1267, 58, 1908
2702, 2945, 1267, 58, 1908, 2946, 1268, 59, 1909
2703, 2946, 1268, 59, 1909, 2947, 1269, 60, 1910
2704, 2947, 1269, 60, 1910, 2948, 1270, 61, 1911
2705, 2948, 1270, 61, 1911, 2949, 1271, 62, 1912
2706, 2949, 1271, 62, 1912, 2950, 1272, 63, 1913
2707, 2950, 1272, 63, 1913, 2951, 1273, 64, 1914
2708, 2951, 1273, 64, 1914, 2952, 1274, 65, 1915
2709, 2952, 1274, 65, 1915, 2953, 1275, 66, 1916
2710, 2953, 1275, 66, 1916, 2954, 1276, 67, 1917
2711, 2954, 1276, 67, 1917, 2955, 1277, 68, 1918
2712, 2955, 1277, 68, 1918, 2956, 1278, 69, 1919
2713, 2956, 1278, 69, 1919, 2957, 1279, 70, 1920
2714, 2957, 1279, 70, 1920, 2958, 1280, 71, 1921
2715, 2958, 1280, 71, 1921, 2959, 1281, 72, 1922
2716, 2959, 1281, 72, 1922, 2960, 1282, 73, 1923
2717, 2960, 1282, 73, 1923, 2961, 1283, 74, 1924
2718, 2961, 1283, 74, 1924, 2962, 1284, 75, 1925
2719, 2962, 1284, 75, 1925, 2963, 1285, 76, 1926
2720, 2963, 1285, 76, 1926, 2964, 1286, 77, 1927
2721, 2964, 1286, 77, 1927, 2965, 1287, 78, 1928
2722, 2965, 1287, 78, 1928, 2966, 1288, 79, 1929
2723, 2966, 1288, 79, 1929, 2967, 1289, 80, 1930
2724, 2967, 1289, 80, 1930, 2968, 1290, 81, 1931
2725, 2968, 1290, 81, 1931, 2969, 1291, 82, 1932
2726, 2969, 1291, 82, 1932, 1318, 101, 2, 1301
2727, 128, 118, 20, 21, 2909, 2299, 1170, 1231
2728, 2909, 2299, 1170, 1231, 2910, 2300, 1171, 1232
2729, 2910, 2300, 1171, 1232, 2911, 2301, 1172, 1233
2730, 2911, 2301, 1172, 1233, 2912, 2302, 1173, 1234
2731, 2912, 2302, 1173, 1234, 2913, 2303, 1174, 1235
2732, 2913, 2303, 1174, 1235, 2914, 2304, 1175, 1236
2733, 2914, 2304, 1175, 1236, 2915, 2305, 1176, 1237
2734, 2915, 2305, 1176, 1237, 2916, 2306, 1177, 1238
2735, 2916, 2306, 1177, 1238, 2917, 2307, 1178, 1239
2736, 2917, 2307, 1178, 1239, 2918, 2308, 1179, 1240
2737, 2918, 2308, 1179, 1240, 2919, 2309, 1180, 1241
2738, 2919, 2309, 1180, 1241, 2920, 2310, 1181, 1242
2739, 2920, 2310, 1181, 1242, 2921, 2311, 1182, 1243
2740, 2921, 2311, 1182, 1243, 2922, 2312, 1183, 1244
2741, 2922, 2312, 1183, 1244, 2923, 2313, 1184, 1245
2742, 2923, 2313, 1184, 1245, 2924, 2314, 1185, 1246
2743, 2924, 2314, 1185, 1246, 2925, 2315, 1186, 1247
2744, 2925, 2315, 1186, 1247, 2926, 2316, 1187, 1248
2745, 2926, 2316, 1187, 1248, 2927, 2317, 1188, 1249
2746, 2927, 2317, 1188, 1249, 2928, 2318, 1189, 1250
2747, 2928, 2318, 1189, 1250, 2929, 2319, 1190, 1251
2748, 2929, 2319, 1190, 1251, 2930, 2320, 1191, 1252
2749, 2930, 2320, 1191, 1252, 2931, 2321, 1192, 1253
2750, 2931, 2321, 1192, 1253, 2932, 2322, 1193, 1254
2751, 2932, 2322, 1193, 1254, 2933, 2323, 1194, 1255
2752, 2933, 2323, 1194, 1255, 2934, 2324, 1195, 1256
2753, 2934, 2324, 1195, 1256, 2935, 2325, 1196, 1257
2754, 2935, 2325, 1196, 1257, 2936, 2326, 1197, 1258
2755, 2936, 2326, 1197, 1258, 2937, 2327, 1198, 1259
2756, 2937, 2327, 1198, 1259, 2938, 2328, 1199, 1260
2757, 2938, 2328, 1199, 1260, 2939, 2329, 1200, 1261
2758, 2939, 2329, 1200, 1261, 2940, 2330, 1201, 1262
2759, 2940, 2330, 1201, 1262, 2941, 2331, 1202, 1263
2760, 2941, 2331, 1202, 1263, 2942, 2332, 1203, 1264
2761, 2942, 2332, 1203, 1264, 2943, 2333, 1204, 1265
2762, 2943, 2333, 1204, 1265, 2944, 2334, 1205, 1266
2763, 2944, 2334, 1205, 1266, 2945, 2335, 1206, 1267
2764, 2945, 2335, 1206, 1267, 2946, 2336, 1207, 1268
2765, 2946, 2336, 1207, 1268, 2947, 2337, 1208, 1269
2766, 2947, 2337, 1208, 1269, 2948, 2338, 1209, 1270
2767, 2948, 2338, 1209, 1270, 2949, 2339, 1210, 1271
2768, 2949, 2339, 1210, 1271, 2950, 2340, 1211, 1272
2769, 2950, 2340, 1211, 1272, 2951, 2341, 1212, 1273
2770, 2951, 2341, 1212, 1273, 2952, 2342, 1213, 1274
2771, 2952, 2342, 1213, 1274, 2953, 2343, 1214, 1275
2772, 2953, 2343, 1214, 1275, 2954, 2344, 1215, 1276
2773, 2954, 2344, 1215, 1276, 2955, 2345, 1216, 1277
2774, 2955, 2345, 1216, 1277, 2956, 2346, 1217, 1278
2775, 2956, 2346, 1217, 1278, 2957, 2347, 1218, 1279
2776, 2957, 2347, 1218, 1279, 2958, 2348, 1219, 1280
2777, 2958, 2348, 1219, 1280, 2959, 2349, 1220, 1281
2778, 2959, 2349, 1220, 1281, 2960, 2350, 1221, 1282
2779, 2960, 2350, 1221, 1282, 2961, 2351, 1222, 1283
2780, 2961, 2351, 1222, 1283, 2962, 2352, 1223, 1284
2781, 2962, 2352, 1223, 1284, 2963, 2353, 1224, 1285
2782, 2963, 2353, 1224, 1285, 2964, 2354, 1225, 1286
2783, 2964, 2354, 1225, 1286, 2965, 2355, 1226, 1287
2784, 2965, 2355, 1226, 1287, 2966, 2356, 1227, 1288
2785, 2966, 2356, 1227, 1288, 2967, 2357, 1228, 1289
2786, 2967, 2357, 1228, 1289, 2968, 2358, 1229, 1290
2787, 2968, 2358, 1229, 1290, 2969, 2359, 1230, 1291
2788, 2969, 2359, 1230, 1291, 1318, 1308, 100, 101
2789, 128, 127, 104, 118, 2909, 2848, 1445, 2299
2790, 2909, 2848, 1445, 2299, 2910, 2849, 1446, 2300
2791, 2910, 2849, 1446, 2300, 2911, 2850, 1447, 2301
2792, 2911, 2850, 1447, 2301, 2912, 2851, 1448, 2302
2793, 2912, 2851, 1448, 2302, 2913, 2852, 1449, 2303
2794, 2913, 2852, 1449, 2303, 2914, 2853, 1450, 2304
2795, 2914, 2853, 1450, 2304, 2915, 2854, 1451, 2305
2796, 2915, 2854, 1451, 2305, 2916, 2855, 1452, 2306
2797, 2916, 2855, 1452, 2306, 2917, 2856, 1453, 2307
2798, 2917, 2856, 1453, 2307, 2918, 2857, 1454, 2308
2799, 2918, 2857, 1454, 2308, 2919, 2858, 1455, 2309
2800, 2919, 2858, 1455, 2309, 2920, 2859, 1456, 2310
2801, 2920, 2859, 1456, 2310, 2921, 2860, 1457, 2311
2802, 2921, 2860, 1457, 2311, 2922, 2861, 1458, 2312
2803, 2922, 2861, 1458, 2312, 2923, 2862, 1459, 2313
2804, 2923, 2862, 1459, 2313, 2924, 2863, 1460, 2314
2805, 2924, 2863, 1460, 2314, 2925, 2864, 1461, 2315
2806, 2925, 2864, 1461, 2315, 2926, 2865, 1462, 2316
2807, 2926, 2865, 1462, 2316, 2927, 2866, 1463, 2317
2808, 2927, 2866, 1463, 2317, 2928, 2867, 1464, 2318
2809, 2928, 2867, 1464, 2318, 2929, 2868, 1465, 2319
2810, 2929, 2868, 1465, 2319, 2930, 2869, 1466, 2320
2811, 2930, 2869, 1466, 2320, 2931, 2870, 1467, 2321
2812, 2931, 2870, 1467, 2321, 2932, 2871, 1468, 2322
2813, 2932, 2871, 1468, 2322, 2933, 2872, 1469, 2323
2814, 2933, 2872, 1469, 2323, 2934, 2873, 1470, 2324
2815, 2934, 2873, 1470, 2324, 2935, 2874, 1471, 2325
2816, 2935, 2874, 1471, 2325, 2936, 2875, 1472, 2326
2817, 2936, 2875, 1472, 2326, 2937, 2876, 1473, 2327
2818, 2937, 2876, 1473, 2327, 2938, 2877, 1474, 2328
2819, 2938, 2877, 1474, 2328, 2939, 2878, 1475, 2329
2820, 2939, 2878, 1475, 2329, 2940, 2879, 1476, 2330
2821, 2940, 2879, 1476, 2330, 2941, 2880, 1477, 2331
2822, 2941, 2880, 1477, 2331, 2942, 2881, 1478, 2332
2823, 2942, 2881, 1478, 2332, 2943, 2882, 1479, 2333
2824, 2943, 2882, 1479, 2333, 2944, 2883, 1480, 2334
2825, 2944, 2883, 1480, 2334, 2945, 2884, 1481, 2335
2826, 2945, 2884, 1481, 2335, 2946, 2885, 1482, 2336
2827, 2946, 2885, 1482, 2336, 2947, 2886, 1483, 2337
2828, 2947, 2886, 1483, 2337, 2948, 2887, 1484, 2338
2829, 2948, 2887, 1484, 2338, 2949, 2888, 1485, 2339
2830, 2949, 2888, 1485, 2339, 2950, 2889, 1486, 2340
2831, 2950, 2889, 1486, 2340, 2951, 2890, 1487, 2341
2832, 2951, 2890, 1487, 2341, 2952, 2891, 1488, 2342
2833, 2952, 2891, 1488, 2342, 2953, 2892, 1489, 2343
2834, 2953, 2892, 1489, 2343, 2954, 2893, 1490, 2344
2835, 2954, 2893, 1490, 2344, 2955, 2894, 1491, 2345
2836, 2955, 2894, 1491, 2345, 2956, 2895, 1492, 2346
2837, 2956, 2895, 1492, 2346, 2957, 2896, 1493, 2347
2838, 2957, 2896, 1493, 2347, 2958, 2897, 1494, 2348
2839, 2958, 2897, 1494, 2348, 2959, 2898, 1495, 2349
2840, 2959, 2898, 1495, 2349, 2960, 2899, 1496, 2350
2841, 2960, 2899, 1496, 2350, 2961, 2900, 1497, 2351
2842, 2961, 2900, 1497, 2351, 2962, 2901, 1498, 2352
2843, 2962, 2901, 1498, 2352, 2963, 2902, 1499, 2353
2844, 2963, 2902, 1499, 2353, 2964, 2903, 1500, 2354
2845, 2964, 2903, 1500, 2354, 2965, 2904, 1501, 2355
2846, 2965, 2904, 1501, 2355, 2966, 2905, 1502, 2356
2847, 2966, 2905, 1502, 2356, 2967, 2906, 1503, 2357
2848, 2967, 2906, 1503, 2357, 2968, 2907, 1504, 2358
2849, 2968, 2907, 1504, 2358, 2969, 2908, 1505, 2359
2850, 2969, 2908, 1505, 2359, 1318, 1317, 1294, 1308
2851, 128, 111, 103, 127, 2909, 1872, 1384, 2848
2852, 2909, 1872, 1384, 2848, 2910, 1873, 1385, 2849
2853, 2910, 1873, 1385, 2849, 2911, 1874, 1386, 2850
2854, 2911, 1874, 1386, 2850, 2912, 1875, 1387, 2851
2855, 2912, 1875, 1387, 2851, 2913, 1876, 1388, 2852
2856, 2913, 1876, 1388, 2852, 2914, 1877, 1389, 2853
2857, 2914, 1877, 1389, 2853, 2915, 1878, 1390, 2854
2858, 2915, 1878, 1390, 2854, 2916, 1879, 1391, 2855
2859, 2916, 1879, 1391, 2855, 2917, 1880, 1392, 2856
2860, 2917, 1880, 1392, 2856, 2918, 1881, 1393, 2857
2861, 2918, 1881, 1393, 2857, 2919, 1882, 1394, 2858
2862, 2919, 1882, 1394, 2858, 2920, 1883, 1395, 2859
2863, 2920, 1883, 1395, 2859, 2921, 1884, 1396, 2860
2864, 2921, 1884, 1396, 2860, 2922, 1885, 1397, 2861
2865, 2922, 1885, 1397, 2861, 2923, 1886, 1398, 2862
2866, 2923, 1886, 1398, 2862, 2924, 1887, 1399, 2863
2867, 2924, 1887, 1399, 2863, 2925, 1888, 1400, 2864
2868, 2925, 1888, 1400, 2864, 2926, 1889, 1401, 2865
2869, 2926, 1889, 1401, 2865, 2927, 1890, 1402, 2866
2870, 2927, 1890, 1402, 2866, 2928, 1891, 1403, 2867
2871, 2928, 1891, 1403, 2867, 2929, 1892, 1404, 2868
2872, 2929, 1892, 1404, 2868, 2930, 1893, 1405, 2869
2873, 2930, 1893, 1405, 2869, 2931, 1894, 1406, 2870
2874, 2931, 1894, 1406, 2870, 2932, 1895, 1407, 2871
2875, 2932, 1895, 1407, 2871, 2933, 1896, 1408, 2872
2876, 2933, 1896, 1408, 2872, 2934, 1897, 1409, 2873
2877, 2934, 1897, 1409, 2873, 2935, 1898, 1410, 2874
2878, 2935, 1898, 1410, 2874, 2936, 1899, 1411, 2875
2879, 2936, 1899, 1411, 2875, 2937, 1900, 1412, 2876
2880, 2937, 1900, 1412, 2876, 2938, 1901, 1413, 2877
2881, 2938, 1901, 1413, 2877, 2939, 1902, 1414, 2878
2882, 2939, 1902, 1414, 2878, 2940, 1903, 1415, 2879
2883, 2940, 1903, 1415, 2879, 2941, 1904, 1416, 2880
2884, 2941, 1904, 1416, 2880, 2942, 1905, 1417, 2881
2885, 2942, 1905, 1417, 2881, 2943, 1906, 1418, 2882
2886, 2943, 1906, 1418, 2882, 2944, 1907, 1419, 2883
2887, 2944, 1907, 1419, 2883, 2945, 1908, 1420, 2884
2888, 2945, 1908, 1420, 2884, 2946, 1909, 1421, 2885
2889, 2946, 1909, 1421, 2885, 2947, 1910, 1422, 2886
2890, 2947, 1910, 1422, 2886, 2948, 1911, 1423, 2887
2891, 2948, 1911, 1423, 2887, 2949, 1912, 1424, 2888
2892, 2949, 1912, 1424, 2888, 2950, 1913, 1425, 2889
2893, 2950, 1913, 1425, 2889, 2951, 1914, 1426, 2890
2894, 2951, 1914, 1426, 2890, 2952, 1915, 1427, 2891
2895, 2952, 1915, 1427, 2891, 2953, 1916, 1428, 2892
2896, 2953, 1916, 1428, 2892, 2954, 1917, 1429, 2893
2897, 2954, 1917, 1429, 2893, 2955, 1918, 1430, 2894
2898, 2955, 1918, 1430, 2894, 2956, 1919, 1431, 2895
2899, 2956, 1919, 1431, 2895, 2957, 1920, 1432, 2896
2900, 2957, 1920, 1432, 2896, 2958, 1921, 1433, 2897
2901, 2958, 1921, 1433, 2897, 2959, 1922, 1434, 2898
2902, 2959, 1922, 1434, 2898, 2960, 1923, 1435, 2899
2903, 2960, 1923, 1435, 2899, 2961, 1924, 1436, 2900
2904, 2961, 1924, 1436, 2900, 2962, 1925, 1437, 2901
2905, 2962, 1925, 1437, 2901, 2963, 1926, 1438, 2902
2906, 2963, 1926, 1438, 2902, 2964, 1927, 1439, 2903
2907, 2964, 1927, 1439, 2903, 2965, 1928, 1440, 2904
2908, 2965, 1928, 1440, 2904, 2966, 1929, 1441, 2905
2909, 2966, 1929, 1441, 2905, 2967, 1930, 1442, 2906
2910, 2967, 1930, 1442, 2906, 2968, 1931, 1443, 2907
2911, 2968, 1931, 1443, 2907, 2969, 1932, 1444, 2908
2912, 2969, 1932, 1444, 2908, 1318, 1301, 1293, 1317
2913, 129, 122, 102, 107, 2970, 2543, 1323, 1628
2914, 2970, 2543, 1323, 1628, 2971, 2544, 1324, 1629
2915, 2971, 2544, 1324, 1629, 2972, 2545, 1325, 1630
2916, 2972, 2545, 1325, 1630, 2973, 2546, 1326, 1631
2917, 2973, 2546, 1326, 1631, 2974, 2547, 1327, 1632
2918, 2974, 2547, 1327, 1632, 2975, 2548, 1328, 1633
2919, 2975, 2548, 1328, 1633, 2976, 2549, 1329, 1634
2920, 2976, 2549, 1329, 1634, 2977, 2550, 1330, 1635
2921, 2977, 2550, 1330, 1635, 2978, 2551, 1331, 1636
2922, 2978, 2551, 1331, 1636, 2979, 2552, 1332, 1637
2923, 2979, 2552, 1332, 1637, 2980, 2553, 1333, 1638
2924, 2980, 2553, 1333, 1638, 2981, 2554, 1334, 1639
2925, 2981, 2554, 1334, 1639, 2982, 2555, 1335, 1640
2926, 2982, 2555, 1335, 1640, 2983, 2556, 1336, 1641
2927, 2983, 2556, 1336, 1641, 2984, 2557, 1337, 1642
2928, 2984, 2557, 1337, 1642, 2985, 2558, 1338, 1643
2929, 2985, 2558, 1338, 1643, 2986, 2559, 1339, 1644
2930, 2986, 2559, 1339, 1644, 2987, 2560, 1340, 1645
2931, 2987, 2560, 1340, 1645, 2988, 2561, 1341, 1646
2932, 2988, 2561, 1341, 1646, 2989, 2562, 1342, 1647
2933, 2989, 2562, 1342, 1647, 2990, 2563, 1343, 1648
2934, 2990, 2563, 1343, 1648, 2991, 2564, 1344, 1649
2935, 2991, 2564, 1344, 1649, 2992, 2565, 1345, 1650
2936, 2992, 2565, 1345, 1650, 2993, 2566, 1346, 1651
2937, 2993, 2566, 1346, 1651, 2994, 2567, 1347, 1652
2938, 2994, 2567, 1347, 1652, 2995, 2568, 1348, 1653
2939, 2995, 2568, 1348, 1653, 2996, 2569, 1349, 1654
2940, 2996, 2569, 1349, 1654, 2997, 2570, 1350, 1655
2941, 2997, 2570, 1350, 1655, 2998, 2571, 1351, 1656
2942, 2998, 2571, 1351, 1656, 2999, 2572, 1352, 1657
2943, 2999, 2572, 1352, 1657, 3000, 2573, 1353, 1658
2944, 3000, 2573, 1353, 1658, 3001, 2574, 1354, 1659
2945, 3001, 2574, 1354, 1659, 3002, 2575, 1355, 1660
2946, 3002, 2575, 1355, 1660, 3003, 2576, 1356, 1661
2947, 3003, 2576, 1356, 1661, 3004, 2577, 1357, 1662
2948, 3004, 2577, 1357, 1662, 3005, 2578, 1358, 1663
2949, 3005, 2578, 1358, 1663, 3006, 2579, 1359, 1664
2950, 3006, 2579, 1359, 1664, 3007, 2580, 1360, 1665
2951, 3007, 2580, 1360, 1665, 3008, 2581, 1361, 1666
2952, 3008, 2581, 1361, 1666, 3009, 2582, 1362, 1667
2953, 3009, 2582, 1362, 1667, 3010, 2583, 1363, 1668
2954, 3010, 2583, 1363, 1668, 3011, 2584, 1364, 1669
2955, 3011, 2584, 1364, 1669, 3012, 2585, 1365, 1670
2956, 3012, 2585, 1365, 1670, 3013, 2586, 1366, 1671
2957, 3013, 2586, 1366, 1671, 3014, 2587, 1367, 1672
2958, 3014, 2587, 1367, 1672, 3015, 2588, 1368, 1673
2959, 3015, 2588, 1368, 1673, 3016, 2589, 1369, 1674
2960, 3016, 2589, 1369, 1674, 3017, 2590, 1370, 1675
2961, 3017, 2590, 1370, 1675, 3018, 2591, 1371, 1676
2962, 3018, 2591, 1371, 1676, 3019, 2592, 1372, 1677
2963, 3019, 2592, 1372, 1677, 3020, 2593, 1373, 1678
2964, 3020, 2593, 1373, 1678, 3021, 2594, 1374, 1679
2965, 3021, 2594, 1374, 1679, 3022, 2595, 1375, 1680
2966, 3022, 2595, 1375, 1680, 3023, 2596, 1376, 1681
2967, 3023, 2596, 1376, 1681, 3024, 2597, 1377, 1682
2968, 3024, 2597, 1377, 1682, 3025, 2598, 1378, 1683
2969, 3025, 2598, 1378, 1683, 3026, 2599, 1379, 1684
2970, 3026, 2599, 1379, 1684, 3027, 2600, 1380, 1685
2971, 3027, 2600, 1380, 1685, 3028, 2601, 1381, 1686
2972, 3028, 2601, 1381, 1686, 3029, 2602, 1382, 1687
2973, 3029, 2602, 1382, 1687, 3030, 2603, 1383, 1688
2974, 3030, 2603, 1383, 1688, 1319, 1312, 1292, 1297
2975, 129, 124, 105, 122, 2970, 2665, 1506, 2543
2976, 2970, 2665, 1506, 2543, 2971, 2666, 1507, 2544
2977, 2971, 2666, 1507, 2544, 2972, 2667, 1508, 2545
2978, 2972, 2667, 1508, 2545, 2973, 2668, 1509, 2546
2979, 2973, 2668, 1509, 2546, 2974, 2669, 1510, 2547
2980, 2974, 2669, 1510, 2547, 2975, 2670, 1511, 2548
2981, 2975, 2670, 1511, 2548, 2976, 2671, 1512, 2549
2982, 2976, 2671, 1512, 2549, 2977, 2672, 1513, 2550
2983, 2977, 2672, 1513, 2550, 2978, 2673, 1514, 2551
2984, 2978, 2673, 1514, 2551, 2979, 2674, 1515, 2552
2985, 2979, 2674, 1515, 2552, 2980, 2675, 1516, 2553
2986, 2980, 2675, 1516, 2553, 2981, 2676, 1517, 2554
2987, 2981, 2676, 1517, 2554, 2982, 2677, 1518, 2555
2988, 2982, 2677, 1518, 2555, 2983, 2678, 1519, 2556
2989, 2983, 2678, 1519, 2556, 2984, 2679, 1520, 2557
2990, 2984, 2679, 1520, 2557, 2985, 2680, 1521, 2558
2991, 2985, 2680, 1521, 2558, 2986, 2681, 1522, 2559
2992, 2986, 2681, 1522, 2559, 2987, 2682, 1523, 2560
2993, 2987, 2682, 1523, 2560, 2988, 2683, 1524, 2561
2994, 2988, 2683, 1524, 2561, 2989, 2684, 1525, 2562
2995, 2989, 2684, 1525, 2562, 2990, 2685, 1526, 2563
2996, 2990, 2685, 1526, 2563, 2991, 2686, 1527, 2564
2997, 2991, 2686, 1527, 2564, 2992, 2687, 1528, 2565
2998, 2992, 2687, 1528, 2565, 2993, 2688, 1529, 2566
2999, 2993, 2688, 1529, 2566, 2994, 2689, 1530, 2567
3000, 2994, 2689, 1530, 2567, 2995, 2690, 1531, 2568
3001, 2995, 2690, 1531, 2568, 2996, 2691, 1532, 2569
3002, 2996, 2691, 1532, 2569, 2997, 2692, 1533, 2570
3003, 2997, 2692, 1533, 2570, 2998, 2693, 1534, 2571
3004, 2998, 2693, 1534, 2571, 2999, 2694, 1535, 2572
3005, 2999, 2694, 1535, 2572, 3000, 2695, 1536, 2573
3006, 3000, 2695, 1536, 2573, 3001, 2696, 1537, 2574
3007, 3001, 2696, 1537, 2574, 3002, 2697, 1538, 2575
3008, 3002, 2697, 1538, 2575, 3003, 2698, 1539, 2576
3009, 3003, 2698, 1539, 2576, 3004, 2699, 1540, 2577
3010, 3004, 2699, 1540, 2577, 3005, 2700, 1541, 2578
3011, 3005, 2700, 1541, 2578, 3006, 2701, 1542, 2579
3012, 3006, 2701, 1542, 2579, 3007, 2702, 1543, 2580
3013, 3007, 2702, 1543, 2580, 3008, 2703, 1544, 2581
3014, 3008, 2703, 1544, 2581, 3009, 2704, 1545, 2582
3015, 3009, 2704, 1545, 2582, 3010, 2705, 1546, 2583
3016, 3010, 2705, 1546, 2583, 3011, 2706, 1547, 2584
3017, 3011, 2706, 1547, 2584, 3012, 2707, 1548, 2585
3018, 3012, 2707, 1548, 2585, 3013, 2708, 1549, 2586
3019, 3013, 2708, 1549, 2586, 3014, 2709, 1550, 2587
3020, 3014, 2709, 1550, 2587, 3015, 2710, 1551, 2588
3021, 3015, 2710, 1551, 2588, 3016, 2711, 1552, 2589
3022, 3016, 2711, 1552, 2589, 3017, 2712, 1553, 2590
3023, 3017, 2712, 1553, 2590, 3018, 2713, 1554, 2591
3024, 3018, 2713, 1554, 2591, 3019, 2714, 1555, 2592
3025, 3019, 2714, 1555, 2592, 3020, 2715, 1556, 2593
3026, 3020, 2715, 1556, 2593, 3021, 2716, 1557, 2594
3027, 3021, 2716, 1557, 2594, 3022, 2717, 1558, 2595
3028, 3022, 2717, 1558, 2595, 3023, 2718, 1559, 2596
3029, 3023, 2718, 1559, 2596, 3024, 2719, 1560, 2597
3030, 3024, 2719, 1560, 2597, 3025, 2720, 1561, 2598
3031, 3025, 2720, 1561, 2598, 3026, 2721, 1562, 2599
3032, 3026, 2721, 1562, 2599, 3027, 2722, 1563, 2600
3033, 3027, 2722, 1563, 2600, 3028, 2723, 1564, 2601
3034, 3028, 2723, 1564, 2601, 3029, 2724, 1565, 2602
3035, 3029, 2724, 1565, 2602, 3030, 2725, 1566, 2603
3036, 3030, 2725, 1566, 2603, 1319, 1314, 1295, 1312
3037, 129, 127, 103, 124, 2970, 2848, 1384, 2665
3038, 2970, 2848, 1384, 2665, 2971, 2849, 1385, 2666
3039, 2971, 2849, 1385, 2666, 2972, 2850, 1386, 2667
3040, 2972, 2850, 1386, 2667, 2973, 2851, 1387, 2668
3041, 2973, 2851, 1387, 2668, 2974, 2852, 1388, 2669
3042, 2974, 2852, 1388, 2669, 2975, 2853, 1389, 2670
3043, 2975, 2853, 1389, 2670, 2976, 2854, 1390, 2671
3044, 2976, 2854, 1390, 2671, 2977, 2855, 1391, 2672
3045, 2977, 2855, 1391, 2672, 2978, 2856, 1392, 2673
3046, 2978, 2856, 1392, 2673, 2979, 2857, 1393, 2674
3047, 2979, 2857, 1393, 2674, 2980, 2858, 1394, 2675
3048, 2980, 2858, 1394, 2675, 2981, 2859, 1395, 2676
3049, 2981, 2859, 1395, 2676, 2982, 2860, 1396, 2677
3050, 2982, 2860, 1396, 2677, 2983, 2861, 1397, 2678
3051, 2983, 2861, 1397, 2678, 2984, 2862, 1398, 2679
3052, 2984, 2862, 1398, 2679, 2985, 2863, 1399, 2680
3053, 2985, 2863, 1399, 2680, 2986, 2864, 1400, 2681
3054, 2986, 2864, 1400, 2681, 2987, 2865, 1401, 2682
3055, 2987, 2865, 1401, 2682, 2988, 2866, 1402, 2683
3056, 2988, 2866, 1402, 2683, 2989, 2867, 1403, 2684
3057, 2989, 2867, 1403, 2684, 2990, 2868, 1404, 2685
3058, 2990, 2868, 1404, 2685, 2991, 2869, 1405, 2686
3059, 2991, 2869, 1405, 2686, 2992, 2870, 1406, 2687
3060, 2992, 2870, 1406, 2687, 2993, 2871, 1407, 2688
3061, 2993, 2871, 1407, 2688, 2994, 2872, 1408, 2689
3062, 2994, 2872, 1408, 2689, 2995, 2873, 1409, 2690
3063, 2995, 2873, 1409, 2690, 2996, 2874, 1410, 2691
3064, 2996, 2874, 1410, 2691, 2997, 2875, 1411, 2692
3065, 2997, 2875, 1411, 2692, 2998, 2876, 1412, 2693
3066, 2998, 2876, 1412, 2693, 2999, 2877, 1413, 2694
3067, 2999, 2877, 1413, 2694, 3000, 2878, 1414, 2695
3068, 3000, 2878, 1414, 2695, 3001, 2879, 1415, 2696
3069, 3001, 2879, 1415, 2696, 3002, 2880, 1416, 2697
3070, 3002, 2880, 1416, 2697, 3003, 2881, 1417, 2698
3071, 3003, 2881, 1417, 2698, 3004, 2882, 1418, 2699
3072, 3004, 2882, 1418, 2699, 3005, 2883, 1419, 2700
3073, 3005, 2883, 1419, 2700, 3006, 2884, 1420, 2701
3074, 3006, 2884, 1420, 2701, 3007, 2885, 1421, 2702
3075, 3007, 2885, 1421, 2702, 3008, 2886, 1422, 2703
3076, 3008, 2886, 1422, 2703, 3009, 2887, 1423, 2704
3077, 3009, 2887, 1423, 2704, 3010, 2888, 1424, 2705
3078, 3010, 2888, 1424, 2705, 3011, 2889, 1425, 2706
3079, 3011, 2889, 1425, 2706, 3012, 2890, 1426, 2707
3080, 3012, 2890, 1426, 2707, 3013, 2891, 1427, 2708
3081, 3013, 2891, 1427, 2708, 3014, 2892, 1428, 2709
3082, 3014, 2892, 1428, 2709, 3015, 2893, 1429, 2710
3083, 3015, 2893, 1429, 2710, 3016, 2894, 1430, 2711
3084, 3016, 2894, 1430, 2711, 3017, 2895, 1431, 2712
3085, 3017, 2895, 1431, 2712, 3018, 2896, 1432, 2713
3086, 3018, 2896, 1432, 2713, 3019, 2897, 1433, 2714
3087, 3019, 2897, 1433, 2714, 3020, 2898, 1434, 2715
3088, 3020, 2898, 1434, 2715, 3021, 2899, 1435, 2716
3089, 3021, 2899, 1435, 2716, 3022, 2900, 1436, 2717
3090, 3022, 2900, 1436, 2717, 3023, 2901, 1437, 2718
3091, 3023, 2901, 1437, 2718, 3024, 2902, 1438, 2719
3092, 3024, 2902, 1438, 2719, 3025, 2903, 1439, 2720
3093, 3025, 2903, 1439, 2720, 3026, 2904, 1440, 2721
3094, 3026, 2904, 1440, 2721, 3027, 2905, 1441, 2722
3095, 3027, 2905, 1441, 2722, 3028, 2906, 1442, 2723
3096, 3028, 2906, 1442, 2723, 3029, 2907, 1443, 2724
3097, 3029, 2907, 1443, 2724, 3030, 2908, 1444, 2725
3098, 3030, 2908, 1444, 2725, 1319, 1317, 1293, 1314
3099, 129, 107, 104, 127, 2970, 1628, 1445, 2848
3100, 2970, 1628, 1445, 2848, 2971, 1629, 1446, 2849
3101, 2971, 1629, 1446, 2849, 2972, 1630, 1447, 2850
3102, 2972, 1630, 1447, 2850, 2973, 1631, 1448, 2851
3103, 2973, 1631, 1448, 2851, 2974, 1632, 1449, 2852
3104, 2974, 1632, 1449, 2852, 2975, 1633, 1450, 2853
3105, 2975, 1633, 1450, 2853, 2976, 1634, 1451, 2854
3106, 2976, 1634, 1451, 2854, 2977, 1635, 1452, 2855
3107, 2977, 1635, 1452, 2855, 2978, 1636, 1453, 2856
3108, 2978, 1636, 1453, 2856, 2979, 1637, 1454, 2857
3109, 2979, 1637, 1454, 2857, 2980, 1638, 1455, 2858
3110, 2980, 1638, 1455, 2858, 2981, 1639, 1456, 2859
3111, 2981, 1639, 1456, 2859, 2982, 1640, 1457, 2860
3112, 2982, 1640, 1457, 2860, 2983, 1641, 1458, 2861
3113, 2983, 1641, 1458, 2861, 2984, 1642, 1459, 2862
3114, 2984, 1642, 1459, 2862, 2985, 1643, 1460, 2863
3115, 2985, 1643, 1460, 2863, 2986, 1644, 1461, 2864
3116, 2986, 1644, 1461, 2864, 2987, 1645, 1462, 2865
3117, 2987, 1645, 1462, 2865, 2988, 1646, 1463, 2866
3118, 2988, 1646, 1463, 2866, 2989, 1647, 1464, 2867
3119, 2989, 1647, 1464, 2867, 2990, 1648, 1465, 2868
3120, 2990, 1648, 1465, 2868, 2991, 1649, 1466, 2869
3121, 2991, 1649, 1466, 2869, 2992, 1650, 1467, 2870
3122, 2992, 1650, 1467, 2870, 2993, 1651, 1468, 2871
3123, 2993, 1651, 1468, 2871, 2994, 1652, 1469, 2872
3124, 2994, 1652, 1469, 2872, 2995, 1653, 1470, 2873
3125, 2995, 1653, 1470, 2873, 2996, 1654, 1471, 2874
3126, 2996, 1654, 1471, 2874, 2997, 1655, 1472, 2875
3127, 2997, 1655, 1472, 2875, 2998, 1656, 1473, 2876
3128, 2998, 1656, 1473, 2876, 2999, 1657, 1474, 2877
3129, 2999, 1657, 1474, 2877, 3000, 1658, 1475, 2878
3130, 3000, 1658, 1475, 2878, 3001, 1659, 1476, 2879
3131, 3001, 1659, 1476, 2879, 3002, 1660, 1477, 2880
3132, 3002, 1660, 1477, 2880, 3003, 1661, 1478, 2881
3133, 3003, 1661, 1478, 2881, 3004, 1662, 1479, 2882
3134, 3004, 1662, 1479, 2882, 3005, 1663, 1480, 2883
3135, 3005, 1663, 1480, 2883, 3006, 1664, 1481, 2884
3136, 3006, 1664, 1481, 2884, 3007, 1665, 1482, 2885
3137, 3007, 1665, 1482, 2885, 3008, 1666, 1483, 2886
3138, 3008, 1666, 1483, 2886, 3009, 1667, 1484, 2887
3139, 3009, 1667, 1484, 2887, 3010, 1668, 1485, 2888
3140, 3010, 1668, 1485, 2888, 3011, 1669, 1486, 2889
3141, 3011, 1669, 1486, 2889, 3012, 1670, 1487, 2890
3142, 3012, 1670, 1487, 2890, 3013, 1671, 1488, 2891
3143, 3013, 1671, 1488, 2891, 3014, 1672, 1489, 2892
3144, 3014, 1672, 1489, 2892, 3015, 1673, 1490, 2893
3145, 3015, 1673, 1490, 2893, 3016, 1674, 1491, 2894
3146, 3016, 1674, 1491, 2894, 3017, 1675, 1492, 2895
3147, 3017, 1675, 1492, 2895, 3018, 1676, 1493, 2896
3148, 3018, 1676, 1493, 2896, 3019, 1677, 1494, 2897
3149, 3019, 1677, 1494, 2897, 3020, 1678, 1495, 2898
3150, 3020, 1678, 1495, 2898, 3021, 1679, 1496, 2899
3151, 3021, 1679, 1496, 2899, 3022, 1680, 1497, 2900
3152, 3022, 1680, 1497, 2900, 3023, 1681, 1498, 2901
3153, 3023, 1681, 1498, 2901, 3024, 1682, 1499, 2902
3154, 3024, 1682, 1499, 2902, 3025, 1683, 1500, 2903
3155, 3025, 1683, 1500, 2903, 3026, 1684, 1501, 2904
3156, 3026, 1684, 1501, 2904, 3027, 1685, 1502, 2905
3157, 3027, 1685, 1502, 2905, 3028, 1686, 1503, 2906
3158, 3028, 1686, 1503, 2906, 3029, 1687, 1504, 2907
3159, 3029, 1687, 1504, 2907, 3030, 1688, 1505, 2908
3160, 3030, 1688, 1505, 2908, 1319, 1297, 1294, 1317
3161, 130, 109, 102, 120, 3031, 1750, 1323, 2421
3162, 3031, 1750, 1323, 2421, 3032, 1751, 1324, 2422
3163, 3032, 1751, 1324, 2422, 3033, 1752, 1325, 2423
3164, 3033, 1752, 1325, 2423, 3034, 1753, 1326, 2424
3165, 3034, 1753, 1326, 2424, 3035, 1754, 1327, 2425
3166, 3035, 1754, 1327, 2425, 3036, 1755, 1328, 2426
3167, 3036, 1755, 1328, 2426, 3037, 1756, 1329, 2427
3168, 3037, 1756, 1329, 2427, 3038, 1757, 1330, 2428
3169, 3038, 1757, 1330, 2428, 3039, 1758, 1331, 2429
3170, 3039, 1758, 1331, 2429, 3040, 1759, 1332, 2430
3171, 3040, 1759, 1332, 2430, 3041, 1760, 1333, 2431
3172, 3041, 1760, 1333, 2431, 3042, 1761, 1334, 2432
3173, 3042, 1761, 1334, 2432, 3043, 1762, 1335, 2433
3174, 3043, 1762, 1335, 2433, 3044, 1763, 1336, 2434
3175, 3044, 1763, 1336, 2434, 3045, 1764, 1337, 2435
3176, 3045, 1764, 1337, 2435, 3046, 1765, 1338, 2436
3177, 3046, 1765, 1338, 2436, 3047, 1766, 1339, 2437
3178, 3047, 1766, 1339, 2437, 3048, 1767, 1340, 2438
3179, 3048, 1767, 1340, 2438, 3049, 1768, 1341, 2439
3180, 3049, 1768, 1341, 2439, 3050, 1769, 1342, 2440
3181, 3050, 1769, 1342, 2440, 3051, 1770, 1343, 2441
3182, 3051, 1770, 1343, 2441, 3052, 1771, 1344, 2442
3183, 3052, 1771, 1344, 2442, 3053, 1772, 1345, 2443
3184, 3053, 1772, 1345, 2443, 3054, 1773, 1346, 2444
3185, 3054, 1773, 1346, 2444, 3055, 1774, 1347, 2445
3186, 3055, 1774, 1347, 2445, 3056, 1775, 1348, 2446
3187, 3056, 1775, 1348, 2446, 3057, 1776, 1349, 2447
3188, 3057, 1776, 1349, 2447, 3058, 1777, 1350, 2448
3189, 3058, 1777, 1350, 2448, 3059, 1778, 1351, 2449
3190, 3059, 1778, 1351, 2449, 3060, 1779, 1352, 2450
3191, 3060, 1779, 1352, 2450, 3061, 1780, 1353, 2451
3192, 3061, 1780, 1353, 2451, 3062, 1781, 1354, 2452
3193, 3062, 1781, 1354, 2452, 3063, 1782, 1355, 2453
3194, 3063, 1782, 1355, 2453, 3064, 1783, 1356, 2454
3195, 3064, 1783, 1356, 2454, 3065, 1784, 1357, 2455
3196, 3065, 1784, 1357, 2455, 3066, 1785, 1358, 2456
3197, 3066, 1785, 1358, 2456, 3067, 1786, 1359, 2457
3198, 3067, 1786, 1359, 2457, 3068, 1787, 1360, 2458
3199, 3068, 1787, 1360, 2458, 3069, 1788, 1361, 2459
3200, 3069, 1788, 1361, 2459, 3070, 1789, 1362, 2460
3201, 3070, 1789, 1362, 2460, 3071, 1790, 1363, 2461
3202, 3071, 1790, 1363, 2461, 3072, 1791, 1364, 2462
3203, 3072, 1791, 1364, 2462, 3073, 1792, 1365, 2463
3204, 3073, 1792, 1365, 2463, 3074, 1793, 1366, 2464
3205, 3074, 1793, 1366, 2464, 3075, 1794, 1367, 2465
3206, 3075, 1794, 1367, 2465, 3076, 1795, 1368, 2466
3207, 3076, 1795, 1368, 2466, 3077, 1796, 1369, 2467
3208, 3077, 1796, 1369, 2467, 3078, 1797, 1370, 2468
3209, 3078, 1797, 1370, 2468, 3079, 1798, 1371, 2469
3210, 3079, 1798, 1371, 2469, 3080, 1799, 1372, 2470
3211, 3080, 1799, 1372, 2470, 3081, 1800, 1373, 2471
3212, 3081, 1800, 1373, 2471, 3082, 1801, 1374, 2472
3213, 3082, 1801, 1374, 2472, 3083, 1802, 1375, 2473
3214, 3083, 1802, 1375, 2473, 3084, 1803, 1376, 2474
3215, 3084, 1803, 1376, 2474, 3085, 1804, 1377, 2475
3216, 3085, 1804, 1377, 2475, 3086, 1805, 1378, 2476
3217, 3086, 1805, 1378, 2476, 3087, 1806, 1379, 2477
3218, 3087, 1806, 1379, 2477, 3088, 1807, 1380, 2478
3219, 3088, 1807, 1380, 2478, 3089, 1808, 1381, 2479
3220, 3089, 1808, 1381, 2479, 3090, 1809, 1382, 2480
3221, 3090, 1809, 1382, 2480, 3091, 1810, 1383, 2481
3222, 3091, 1810, 1383, 2481, 1320, 1299, 1292, 1310
3223, 130, 114, 106, 109, 3031, 2055, 1567, 1750
3224, 3031, 2055, 1567, 1750, 3032, 2056, 1568, 1751
3225, 3032, 2056, 1568, 1751, 3033, 2057, 1569, 1752
3226, 3033, 2057, 1569, 1752, 3034, 2058, 1570, 1753
3227, 3034, 2058, 1570, 1753, 3035, 2059, 1571, 1754
3228, 3035, 2059, 1571, 1754, 3036, 2060, 1572, 1755
3229, 3036, 2060, 1572, 1755, 3037, 2061, 1573, 1756
3230, 3037, 2061, 1573, 1756, 3038, 2062, 1574, 1757
3231, 3038, 2062, 1574, 1757, 3039, 2063, 1575, 1758
3232, 3039, 2063, 1575, 1758, 3040, 2064, 1576, 1759
3233, 3040, 2064, 1576, 1759, 3041, 2065, 1577, 1760
3234, 3041, 2065, 1577, 1760, 3042, 2066, 1578, 1761
3235, 3042, 2066, 1578, 1761, 3043, 2067, 1579, 1762
3236, 3043, 2067, 1579, 1762, 3044, 2068, 1580, 1763
3237, 3044, 2068, 1580, 1763, 3045, 2069, 1581, 1764
3238, 3045, 2069, 1581, 1764, 3046, 2070, 1582, 1765
3239, 3046, 2070, 1582, 1765, 3047, 2071, 1583, 1766
3240, 3047, 2071, 1583, 1766, 3048, 2072, 1584, 1767
3241, 3048, 2072, 1584, 1767, 3049, 2073, 1585, 1768
3242, 3049, 2073, 1585, 1768, 3050, 2074, 1586, 1769
3243, 3050, 2074, 1586, 1769, 3051, 2075, 1587, 1770
3244, 3051, 2075, 1587, 1770, 3052, 2076, 1588, 1771
3245, 3052, 2076, 1588, 1771, 3053, 2077, 1589, 1772
3246, 3053, 2077, 1589, 1772, 3054, 2078, 1590, 1773
3247, 3054, 2078, 1590, 1773, 3055, 2079, 1591, 1774
3248, 3055, 2079, 1591, 1774, 3056, 2080, 1592, 1775
3249, 3056, 2080, 1592, 1775, 3057, 2081, 1593, 1776
3250, 3057, 2081, 1593, 1776, 3058, 2082, 1594, 1777
3251, 3058, 2082, 1594, 1777, 3059, 2083, 1595, 1778
3252, 3059, 2083, 1595, 1778, 3060, 2084, 1596, 1779
3253, 3060, 2084, 1596, 1779, 3061, 2085, 1597, 1780
3254, 3061, 2085, 1597, 1780, 3062, 2086, 1598, 1781
3255, 3062, 2086, 1598, 1781, 3063, 2087, 1599, 1782
3256, 3063, 2087, 1599, 1782, 3064, 2088, 1600, 1783
3257, 3064, 2088, 1600, 1783, 3065, 2089, 1601, 1784
3258, 3065, 2089, 1601, 1784, 3066, 2090, 1602, 1785
3259, 3066, 2090, 1602, 1785, 3067, 2091, 1603, 1786
3260, 3067, 2091, 1603, 1786, 3068, 2092, 1604, 1787
3261, 3068, 2092, 1604, 1787, 3069, 2093, 1605, 1788
3262, 3069, 2093, 1605, 1788, 3070, 2094, 1606, 1789
3263, 3070, 2094, 1606, 1789, 3071, 2095, 1607, 1790
3264, 3071, 2095, 1607, 1790, 3072, 2096, 1608, 1791
3265, 3072, 2096, 1608, 1791, 3073, 2097, 1609, 1792
3266, 3073, 2097, 1609, 1792, 3074, 2098, 1610, 1793
3267, 3074, 2098, 1610, 1793, 3075, 2099, 1611, 1794
3268, 3075, 2099, 1611, 1794, 3076, 2100, 1612, 1795
3269, 3076, 2100, 1612, 1795, 3077, 2101, 1613, 1796
3270, 3077, 2101, 1613, 1796, 3078, 2102, 1614, 1797
3271, 3078, 2102, 1614, 1797, 3079, 2103, 1615, 1798
3272, 3079, 2103, 1615, 1798, 3080, 2104, 1616, 1799
3273, 3080, 2104, 1616, 1799, 3081, 2105, 1617, 1800
3274, 3081, 2105, 1617, 1800, 3082, 2106, 1618, 1801
3275, 3082, 2106, 1618, 1801, 3083, 2107, 1619, 1802
3276, 3083, 2107, 1619, 1802, 3084, 2108, 1620, 1803
3277, 3084, 2108, 1620, 1803, 3085, 2109, 1621, 1804
3278, 3085, 2109, 1621, 1804, 3086, 2110, 1622, 1805
3279, 3086, 2110, 1622, 1805, 3087, 2111, 1623, 1806
3280, 3087, 2111, 1623, 1806, 3088, 2112, 1624, 1807
3281, 3088, 2112, 1624, 1807, 3089, 2113, 1625, 1808
3282, 3089, 2113, 1625, 1808, 3090, 2114, 1626, 1809
3283, 3090, 2114, 1626, 1809, 3091, 2115, 1627, 1810
3284, 3091, 2115, 1627, 1810, 1320, 1304, 1296, 1299
3285, 130, 13, 14, 114, 3031, 743, 804, 2055
3286, 3031, 743, 804, 2055, 3032, 744, 805, 2056
3287, 3032, 744, 805, 2056, 3033, 745, 806, 2057
3288, 3033, 745, 806, 2057, 3034, 746, 807, 2058
3289, 3034, 746, 807, 2058, 3035, 747, 808, 2059
3290, 3035, 747, 808, 2059, 3036, 748, 809, 2060
3291, 3036, 748, 809, 2060, 3037, 749, 810, 2061
3292, 3037, 749, 810, 2061, 3038, 750, 811, 2062
3293, 3038, 750, 811, 2062, 3039, 751, 812, 2063
3294, 3039, 751, 812, 2063, 3040, 752, 813, 2064
3295, 3040, 752, 813, 2064, 3041, 753, 814, 2065
3296, 3041, 753, 814, 2065, 3042, 754, 815, 2066
3297, 3042, 754, 815, 2066, 3043, 755, 816, 2067
3298, 3043, 755, 816, 2067, 3044, 756, 817, 2068
3299, 3044, 756, 817, 2068, 3045, 757, 818, 2069
3300, 3045, 757, 818, 2069, 3046, 758, 819, 2070
3301, 3046, 758, 819, 2070, 3047, 759, 820, 2071
3302, 3047, 759, 820, 2071, 3048, 760, 821, 2072
3303, 3048, 760, 821, 2072, 3049, 761, 822, 2073
3304, 3049, 761, 822, 2073, 3050, 762, 823, 2074
3305, 3050, 762, 823, 2074, 3051, 763, 824, 2075
3306, 3051, 763, 824, 2075, 3052, 764, 825, 2076
3307, 3052, 764, 825, 2076, 3053, 765, 826, 2077
3308, 3053, 765, 826, 2077, 3054, 766, 827, 2078
3309, 3054, 766, 827, 2078, 3055, 767, 828, 2079
3310, 3055, 767, 828, 2079, 3056, 768, 829, 2080
3311, 3056, 768, 829, 2080, 3057, 769, 830, 2081
3312, 3057, 769, 830, 2081, 3058, 770, 831, 2082
3313, 3058, 770, 831, 2082, 3059, 771, 832, 2083
3314, 3059, 771, 832, 2083, 3060, 772, 833, 2084
3315, 3060, 772, 833, 2084, 3061, 773, 834, 2085
3316, 3061, 773, 834, 2085, 3062, 774, 835, 2086
3317, 3062, 774, 835, 2086, 3063, 775, 836, 2087
3318, 3063, 775, 836, 2087, 3064, 776, 837, 2088
3319, 3064, 776, 837, 2088, 3065, 777, 838, 2089
3320, 3065, 777, 838, 2089, 3066, 778, 839, 2090
3321, 3066, 778, 839, 2090, 3067, 779, 840, 2091
3322, 3067, 779, 840, 2091, 3068, 780, 841, 2092
3323, 3068, 780, 841, 2092, 3069, 781, 842, 2093
3324, 3069, 781, 842, 2093, 3070, 782, 843, 2094
3325, 3070, 782, 843, 2094, 3071, 783, 844, 2095
3326, 3071, 783, 844, 2095, 3072, 784, 845, 2096
3327, 3072, 784, 845, 2096, 3073, 785, 846, 2097
3328, 3073, 785, 846, 2097, 3074, 786, 847, 2098
3329, 3074, 786, 847, 2098, 3075, 787, 848, 2099
3330, 3075, 787, 848, 2099, 3076, 788, 849, 2100
3331, 3076, 788, 849, 2100, 3077, 789, 850, 2101
3332, 3077, 789, 850, 2101, 3078, 790, 851, 2102
3333, 3078, 790, 851, 2102, 3079, 791, 852, 2103
3334, 3079, 791, 852, 2103, 3080, 792, 853, 2104
3335, 3080, 792, 853, 2104, 3081, 793, 854, 2105
3336, 3081, 793, 854, 2105, 3082, 794, 855, 2106
3337, 3082, 794, 855, 2106, 3083, 795, 856, 2107
3338, 3083, 795, 856, 2107, 3084, 796, 857, 2108
3339, 3084, 796, 857, 2108, 3085, 797, 858, 2109
3340, 3085, 797, 858, 2109, 3086, 798, 859, 2110
3341, 3086, 798, 859, 2110, 3087, 799, 860, 2111
3342, 3087, 799, 860, 2111, 3088, 800, 861, 2112
3343, 3088, 800, 861, 2112, 3089, 801, 862, 2113
3344, 3089, 801, 862, 2113, 3090, 802, 863, 2114
3345, 3090, 802, 863, 2114, 3091, 803, 864, 2115
3346, 3091, 803, 864, 2115, 1320, 93, 94, 1304
3347, 130, 120, 12, 13, 3031, 2421, 682, 743
3348, 3031, 2421, 682, 743, 3032, 2422, 683, 744
3349, 3032, 2422, 683, 744, 3033, 2423, 684, 745
3350, 3033, 2423, 684, 745, 3034, 2424, 685, 746
3351, 3034, 2424, 685, 746, 3035, 2425, 686, 747
3352, 3035, 2425, 686, 747, 3036, 2426, 687, 748
3353, 3036, 2426, 687, 748, 3037, 2427, 688, 749
3354, 3037, 2427, 688, 749, 3038, 2428, 689, 750
3355, 3038, 2428, 689, 750, 3039, 2429, 690, 751
3356, 3039, 2429, 690, 751, 3040, 2430, 691, 752
3357, 3040, 2430, 691, 752, 3041, 2431, 692, 753
3358, 3041, 2431, 692, 753, 3042, 2432, 693, 754
3359, 3042, 2432, 693, 754, 3043, 2433, 694, 755
3360, 3043, 2433, 694, 755, 3044, 2434, 695, 756
3361, 3044, 2434, 695, 756, 3045, 2435, 696, 757
3362, 3045, 2435, 696, 757, 3046, 2436, 697, 758
3363, 3046, 2436, 697, 758, 3047, 2437, 698, 759
3364, 3047, 2437, 698, 759, 3048, 2438, 699, 760
3365, 3048, 2438, 699, 760, 3049, 2439, 700, 761
3366, 3049, 2439, 700, 761, 3050, 2440, 701, 762
3367, 3050, 2440, 701, 762, 3051, 2441, 702, 763
3368, 3051, 2441, 702, 763, 3052, 2442, 703, 764
3369, 3052, 2442, 703, 764, 3053, 2443, 704, 765
3370, 3053, 2443, 704, 765, 3054, 2444, 705, 766
3371, 3054, 2444, 705, 766, 3055, 2445, 706, 767
3372, 3055, 2445, 706, 767, 3056, 2446, 707, 768
3373, 3056, 2446, 707, 768, 3057, 2447, 708, 769
3374, 3057, 2447, 708, 769, 3058, 2448, 709, 770
3375, 3058, 2448, 709, 770, 3059, 2449, 710, 771
3376, 3059, 2449, 710, 771, 3060, 2450, 711, 772
3377, 3060, 2450, 711, 772, 3061, 2451, 712, 773
3378, 3061, 2451, 712, 773, 3062, 2452, 713, 774
3379, 3062, 2452, 713, 774, 3063, 2453, 714, 775
3380, 3063, 2453, 714, 775, 3064, 2454, 715, 776
3381, 3064, 2454, 715, 776, 3065, 2455, 716, 777
3382, 3065, 2455, 716, 777, 3066, 2456, 717, 778
3383, 3066, 2456, 717, 778, 3067, 2457, 718, 779
3384, 3067, 2457, 718, 779, 3068, 2458, 719, 780
3385, 3068, 2458, 719, 780, 3069, 2459, 720, 781
3386, 3069, 2459, 720, 781, 3070, 2460, 721, 782
3387, 3070, 2460, 721, 782, 3071, 2461, 722, 783
3388, 3071, 2461, 722, 783, 3072, 2462, 723, 784
3389, 3072, 2462, 723, 784, 3073, 2463, 724, 785
3390, 3073, 2463, 724, 785, 3074, 2464, 725, 786
3391, 3074, 2464, 725, 786, 3075, 2465, 726, 787
3392, 3075, 2465, 726, 787, 3076, 2466, 727, 788
3393, 3076, 2466, 727, 788, 3077, 2467, 728, 789
3394, 3077, 2467, 728, 789, 3078, 2468, 729, 790
3395, 3078, 2468, 729, 790, 3079, 2469, 730, 791
3396, 3079, 2469, 730, 791, 3080, 2470, 731, 792
3397, 3080, 2470, 731, 792, 3081, 2471, 732, 793
3398, 3081, 2471, 732, 793, 3082, 2472, 733, 794
3399, 3082, 2472, 733, 794, 3083, 2473, 734, 795
3400, 3083, 2473, 734, 795, 3084, 2474, 735, 796
3401, 3084, 2474, 735, 796, 3085, 2475, 736, 797
3402, 3085, 2475, 736, 797, 3086, 2476, 737, 798
3403, 3086, 2476, 737, 798, 3087, 2477, 738, 799
3404, 3087, 2477, 738, 799, 3088, 2478, 739, 800
3405, 3088, 2478, 739, 800, 3089, 2479, 740, 801
3406, 3089, 2479, 740, 801, 3090, 2480, 741, 802
3407, 3090, 2480, 741, 802, 3091, 2481, 742, 803
3408, 3091, 2481, 742, 803, 1320, 1310, 92, 93
3409, 131, 108, 106, 115, 3092, 1689, 1567, 2116
3410, 3092, 1689, 1567, 2116, 3093, 1690, 1568, 2117
3411, 3093, 1690, 1568, 2117, 3094, 1691, 1569, 2118
3412, 3094, 1691, 1569, 2118, 3095, 1692, 1570, 2119
3413, 3095, 1692, 1570, 2119, 3096, 1693, 1571, 2120
3414, 3096, 1693, 1571, 2120, 3097, 1694, 1572, 2121
3415, 3097, 1694, 1572, 2121, 3098, 1695, 1573, 2122
3416, 3098, 1695, 1573, 2122, 3099, 1696, 1574, 2123
3417, 3099, 1696, 1574, 2123, 3100, 1697, 1575, 2124
3418, 3100, 1697, 1575, 2124, 3101, 1698, 1576, 2125
3419, 3101, 1698, 1576, 2125, 3102, 1699, 1577, 2126
3420, 3102, 1699, 1577, 2126, 3103, 1700, 1578, 2127
3421, 3103, 1700, 1578, 2127, 3104, 1701, 1579, 2128
3422, 3104, 1701, 1579, 2128, 3105, 1702, 1580, 2129
3423, 3105, 1702, 1580, 2129, 3106, 1703, 1581, 2130
3424, 3106, 1703, 1581, 2130, 3107, 1704, 1582, 2131
3425, 3107, 1704, 1582, 2131, 3108, 1705, 1583, 2132
3426, 3108, 1705, 1583, 2132, 3109, 1706, 1584, 2133
3427, 3109, 1706, 1584, 2133, 3110, 1707, 1585, 2134
3428, 3110, 1707, 1585, 2134, 3111, 1708, 1586, 2135
3429, 3111, 1708, 1586, 2135, 3112, 1709, 1587, 2136
3430, 3112, 1709, 1587, 2136, 3113, 1710, 1588, 2137
3431, 3113, 1710, 1588, 2137, 3114, 1711, 1589, 2138
3432, 3114, 1711, 1589, 2138, 3115, 1712, 1590, 2139
3433, 3115, 1712, 1590, 2139, 3116, 1713, 1591, 2140
3434, 3116, 1713, 1591, 2140, 3117, 1714, 1592, 2141
3435, 3117, 1714, 1592, 2141, 3118, 1715, 1593, 2142
3436, 3118, 1715, 1593, 2142, 3119, 1716, 1594, 2143
3437, 3119, 1716, 1594, 2143, 3120, 1717, 1595, 2144
3438, 3120, 1717, 1595, 2144, 3121, 1718, 1596, 2145
3439, 3121, 1718, 1596, 2145, 3122, 1719, 1597, 2146
3440, 3122, 1719, 1597, 2146, 3123, 1720, 1598, 2147
3441, 3123, 1720, 1598, 2147, 3124, 1721, 1599, 2148
3442, 3124, 1721, 1599, 2148, 3125, 1722, 1600, 2149
3443, 3125, 1722, 1600, 2149, 3126, 1723, 1601, 2150
3444, 3126, 1723, 1601, 2150, 3127, 1724, 1602, 2151
3445, 3127, 1724, 1602, 2151, 3128, 1725, 1603, 2152
3446, 3128, 1725, 1603, 2152, 3129, 1726, 1604, 2153
3447, 3129, 1726, 1604, 2153, 3130, 1727, 1605, 2154
3448, 3130, 1727, 1605, 2154, 3131, 1728, 1606, 2155
3449, 3131, 1728, 1606, 2155, 3132, 1729, 1607, 2156
3450, 3132, 1729, 1607, 2156, 3133, 1730, 1608, 2157
3451, 3133, 1730, 1608, 2157, 3134, 1731, 1609, 2158
3452, 3134, 1731, 1609, 2158, 3135, 1732, 1610, 2159
3453, 3135, 1732, 1610, 2159, 3136, 1733, 1611, 2160
3454, 3136, 1733, 1611, 2160, 3137, 1734, 1612, 2161
3455, 3137, 1734, 1612, 2161, 3138, 1735, 1613, 2162
3456, 3138, 1735, 1613, 2162, 3139, 1736, 1614, 2163
3457, 3139, 1736, 1614, 2163, 3140, 1737, 1615, 2164
3458, 3140, 1737, 1615, 2164, 3141, 1738, 1616, 2165
3459, 3141, 1738, 1616, 2165, 3142, 1739, 1617, 2166
3460, 3142, 1739, 1617, 2166, 3143, 1740, 1618, 2167
3461, 3143, 1740, 1618, 2167, 3144, 1741, 1619, 2168
3462, 3144, 1741, 1619, 2168, 3145, 1742, 1620, 2169
3463, 3145, 1742, 1620, 2169, 3146, 1743, 1621, 2170
3464, 3146, 1743, 1621, 2170, 3147, 1744, 1622, 2171
3465, 3147, 1744, 1622, 2171, 3148, 1745, 1623, 2172
3466, 3148, 1745, 1623, 2172, 3149, 1746, 1624, 2173
3467, 3149, 1746, 1624, 2173, 3150, 1747, 1625, 2174
3468, 3150, 1747, 1625, 2174, 3151, 1748, 1626, 2175
3469, 3151, 1748, 1626, 2175, 3152, 1749, 1627, 2176
3470, 3152, 1749, 1627, 2176, 1321, 1298, 1296, 1305
3471, 131, 117, 104, 108, 3092, 2238, 1445, 1689
3472, 3092, 2238, 1445, 1689, 3093, 2239, 1446, 1690
3473, 3093, 2239, 1446, 1690, 3094, 2240, 1447, 1691
3474, 3094, 2240, 1447, 1691, 3095, 2241, 1448, 1692
3475, 3095, 2241, 1448, 1692, 3096, 2242, 1449, 1693
3476, 3096, 2242, 1449, 1693, 3097, 2243, 1450, 1694
3477, 3097, 2243, 1450, 1694, 3098, 2244, 1451, 1695
3478, 3098, 2244, 1451, 1695, 3099, 2245, 1452, 1696
3479, 3099, 2245, 1452, 1696, 3100, 2246, 1453, 1697
3480, 3100, 2246, 1453, 1697, 3101, 2247, 1454, 1698
3481, 3101, 2247, 1454, 1698, 3102, 2248, 1455, 1699
3482, 3102, 2248, 1455, 1699, 3103, 2249, 1456, 1700
3483, 3103, 2249, 1456, 1700, 3104, 2250, 1457, 1701
3484, 3104, 2250, 1457, 1701, 3105, 2251, 1458, 1702
3485, 3105, 2251, 1458, 1702, 3106, 2252, 1459, 1703
3486, 3106, 2252, 1459, 1703, 3107, 2253, 1460, 1704
3487, 3107, 2253, 1460, 1704, 3108, 2254, 1461, 1705
3488, 3108, 2254, 1461, 1705, 3109, 2255, 1462, 1706
3489, 3109, 2255, 1462, 1706, 3110, 2256, 1463, 1707
3490, 3110, 2256, 1463, 1707, 3111, 2257, 1464, 1708
3491, 3111, 2257, 1464, 1708, 3112, 2258, 1465, 1709
3492, 3112, 2258, 1465, 1709, 3113, 2259, 1466, 1710
3493, 3113, 2259, 1466, 1710, 3114, 2260, 1467, 1711
3494, 3114, 2260, 1467, 1711, 3115, 2261, 1468, 1712
3495, 3115, 2261, 1468, 1712, 3116, 2262, 1469, 1713
3496, 3116, 2262, 1469, 1713, 3117, 2263, 1470, 1714
3497, 3117, 2263, 1470, 1714, 3118, 2264, 1471, 1715
3498, 3118, 2264, 1471, 1715, 3119, 2265, 1472, 1716
3499, 3119, 2265, 1472, 1716, 3120, 2266, 1473, 1717
3500, 3120, 2266, 1473, 1717, 3121, 2267, 1474, 1718
3501, 3121, 2267, 1474, 1718, 3122, 2268, 1475, 1719
3502, 3122, 2268, 1475, 1719, 3123, 2269, 1476, 1720
3503, 3123, 2269, 1476, 1720, 3124, 2270, 1477, 1721
3504, 3124, 2270, 1477, 1721, 3125, 2271, 1478, 1722
3505, 3125, 2271, 1478, 1722, 3126, 2272, 1479, 1723
3506, 3126, 2272, 1479, 1723, 3127, 2273, 1480, 1724
3507, 3127, 2273, 1480, 1724, 3128, 2274, 1481, 1725
3508, 3128, 2274, 1481, 1725, 3129, 2275, 1482, 1726
3509, 3129, 2275, 1482, 1726, 3130, 2276, 1483, 1727
3510, 3130, 2276, 1483, 1727, 3131, 2277, 1484, 1728
3511, 3131, 2277, 1484, 1728, 3132, 2278, 1485, 1729
3512, 3132, 2278, 1485, 1729, 3133, 2279, 1486, 1730
3513, 3133, 2279, 1486, 1730, 3134, 2280, 1487, 1731
3514, 3134, 2280, 1487, 1731, 3135, 2281, 1488, 1732
3515, 3135, 2281, 1488, 1732, 3136, 2282, 1489, 1733
3516, 3136, 2282, 1489, 1733, 3137, 2283, 1490, 1734
3517, 3137, 2283, 1490, 1734, 3138, 2284, 1491, 1735
3518, 3138, 2284, 1491, 1735, 3139, 2285, 1492, 1736
3519, 3139, 2285, 1492, 1736, 3140, 2286, 1493, 1737
3520, 3140, 2286, 1493, 1737, 3141, 2287, 1494, 1738
3521, 3141, 2287, 1494, 1738, 3142, 2288, 1495, 1739
3522, 3142, 2288, 1495, 1739, 3143, 2289, 1496, 1740
3523, 3143, 2289, 1496, 1740, 3144, 2290, 1497, 1741
3524, 3144, 2290, 1497, 1741, 3145, 2291, 1498, 1742
3525, 3145, 2291, 1498, 1742, 3146, 2292, 1499, 1743
3526, 3146, 2292, 1499, 1743, 3147, 2293, 1500, 1744
3527, 3147, 2293, 1500, 1744, 3148, 2294, 1501, 1745
3528, 3148, 2294, 1501, 1745, 3149, 2295, 1502, 1746
3529, 3149, 2295, 1502, 1746, 3150, 2296, 1503, 1747
3530, 3150, 2296, 1503, 1747, 3151, 2297, 1504, 1748
3531, 3151, 2297, 1504, 1748, 3152, 2298, 1505, 1749
3532, 3152, 2298, 1505, 1749, 1321, 1307, 1294, 1298
3533, 131, 17, 18, 117, 3092, 987, 1048, 2238
3534, 3092, 987, 1048, 2238, 3093, 988, 1049, 2239
3535, 3093, 988, 1049, 2239, 3094, 989, 1050, 2240
3536, 3094, 989, 1050, 2240, 3095, 990, 1051, 2241
3537, 3095, 990, 1051, 2241, 3096, 991, 1052, 2242
3538, 3096, 991, 1052, 2242, 3097, 992, 1053, 2243
3539, 3097, 992, 1053, 2243, 3098, 993, 1054, 2244
3540, 3098, 993, 1054, 2244, 3099, 994, 1055, 2245
3541, 3099, 994, 1055, 2245, 3100, 995, 1056, 2246
3542, 3100, 995, 1056, 2246, 3101, 996, 1057, 2247
3543, 3101, 996, 1057, 2247, 3102, 997, 1058, 2248
3544, 3102, 997, 1058, 2248, 3103, 998, 1059, 2249
3545, 3103, 998, 1059, 2249, 3104, 999, 1060, 2250
3546, 3104, 999, 1060, 2250, 3105, 1000, 1061, 2251
3547, 3105, 1000, 1061, 2251, 3106, 1001, 1062, 2252
3548, 3106, 1001, 1062, 2252, 3107, 1002, 1063, 2253
3549, 3107, 1002, 1063, 2253, 3108, 1003, 1064, 2254
3550, 3108, 1003, 1064, 2254, 3109, 1004, 1065, 2255
3551, 3109, 1004, 1065, 2255, 3110, 1005, 1066, 2256
3552, 3110, 1005, 1066, 2256, 3111, 1006, 1067, 2257
3553, 3111, 1006, 1067, 2257, 3112, 1007, 1068, 2258
3554, 3112, 1007, 1068, 2258, 3113, 1008, 1069, 2259
3555, 3113, 1008, 1069, 2259, 3114, 1009, 1070, 2260
3556, 3114, 1009, 1070, 2260, 3115, 1010, 1071, 2261
3557, 3115, 1010, 1071, 2261, 3116, 1011, 1072, 2262
3558, 3116, 1011, 1072, 2262, 3117, 1012, 1073, 2263
3559, 3117, 1012, 1073, 2263, 3118, 1013, 1074, 2264
3560, 3118, 1013, 1074, 2264, 3119, 1014, 1075, 2265
3561, 3119, 1014, 1075, 2265, 3120, 1015, 1076, 2266
3562, 3120, 1015, 1076, 2266, 3121, 1016, 1077, 2267
3563, 3121, 1016, 1077, 2267, 3122, 1017, 1078, 2268
3564, 3122, 1017, 1078, 2268, 3123, 1018, 1079, 2269
3565, 3123, 1018, 1079, 2269, 3124, 1019, 1080, 2270
3566, 3124, 1019, 1080, 2270, 3125, 1020, 1081, 2271
3567, 3125, 1020, 1081, 2271, 3126, 1021, 1082, 2272
3568, 3126, 1021, 1082, 2272, 3127, 1022, 1083, 2273
3569, 3127, 1022, 1083, 2273, 3128, 1023, 1084, 2274
3570, 3128, 1023, 1084, 2274, 3129, 1024, 1085, 2275
3571, 3129, 1024, 1085, 2275, 3130, 1025, 1086, 2276
3572, 3130, 1025, 1086, 2276, 3131, 1026, 1087, 2277
3573, 3131, 1026, 1087, 2277, 3132, 1027, 1088, 2278
3574, 3132, 1027, 1088, 2278, 3133, 1028, 1089, 2279
3575, 3133, 1028, 1089, 2279, 3134, 1029, 1090, 2280
3576, 3134, 1029, 1090, 2280, 3135, 1030, 1091, 2281
3577, 3135, 1030, 1091, 2281, 3136, 1031, 1092, 2282
3578, 3136, 1031, 1092, 2282, 3137, 1032, 1093, 2283
3579, 3137, 1032, 1093, 2283, 3138, 1033, 1094, 2284
3580, 3138, 1033, 1094, 2284, 3139, 1034, 1095, 2285
3581, 3139, 1034, 1095, 2285, 3140, 1035, 1096, 2286
3582, 3140, 1035, 1096, 2286, 3141, 1036, 1097, 2287
3583, 3141, 1036, 1097, 2287, 3142, 1037, 1098, 2288
3584, 3142, 1037, 1098, 2288, 3143, 1038, 1099, 2289
3585, 3143, 1038, 1099, 2289, 3144, 1039, 1100, 2290
3586, 3144, 1039, 1100, 2290, 3145, 1040, 1101, 2291
3587, 3145, 1040, 1101, 2291, 3146, 1041, 1102, 2292
3588, 3146, 1041, 1102, 2292, 3147, 1042, 1103, 2293
3589, 3147, 1042, 1103, 2293, 3148, 1043, 1104, 2294
3590, 3148, 1043, 1104, 2294, 3149, 1044, 1105, 2295
3591, 3149, 1044, 1105, 2295, 3150, 1045, 1106, 2296
3592, 3150, 1045, 1106, 2296, 3151, 1046, 1107, 2297
3593, 3151, 1046, 1107, 2297, 3152, 1047, 1108, 2298
3594, 3152, 1047, 1108, 2298, 1321, 97, 98, 1307
3595, 131, 115, 16, 17, 3092, 2116, 926, 987
3596, 3092, 2116, 926, 987, 3093, 2117, 927, 988
3597, 3093, 2117, 927, 988, 3094, 2118, 928, 989
3598, 3094, 2118, 928, 989, 3095, 2119, 929, 990
3599, 3095, 2119, 929, 990, 3096, 2120, 930, 991
3600, 3096, 2120, 930, 991, 3097, 2121, 931, 992
3601, 3097, 2121, 931, 992, 3098, 2122, 932, 993
3602, 3098, 2122, 932, 993, 3099, 2123, 933, 994
3603, 3099, 2123, 933, 994, 3100, 2124, 934, 995
3604, 3100, 2124, 934, 995, 3101, 2125, 935, 996
3605, 3101, 2125, 935, 996, 3102, 2126, 936, 997
3606, 3102, 2126, 936, 997, 3103, 2127, 937, 998
3607, 3103, 2127, 937, 998, 3104, 2128, 938, 999
3608, 3104, 2128, 938, 999, 3105, 2129, 939, 1000
3609, 3105, 2129, 939, 1000, 3106, 2130, 940, 1001
3610, 3106, 2130, 940, 1001, 3107, 2131, 941, 1002
3611, 3107, 2131, 941, 1002, 3108, 2132, 942, 1003
3612, 3108, 2132, 942, 1003, 3109, 2133, 943, 1004
3613, 3109, 2133, 943, 1004, 3110, 2134, 944, 1005
3614, 3110, 2134, 944, 1005, 3111, 2135, 945, 1006
3615, 3111, 2135, 945, 1006, 3112, 2136, 946, 1007
3616, 3112, 2136, 946, 1007, 3113, 2137, 947, 1008
3617, 3113, 2137, 947, 1008, 3114, 2138, 948, 1009
3618, 3114, 2138, 948, 1009, 3115, 2139, 949, 1010
3619, 3115, 2139, 949, 1010, 3116, 2140, 950, 1011
3620, 3116, 2140, 950, 1011, 3117, 2141, 951, 1012
3621, 3117, 2141, 951, 1012, 3118, 2142, 952, 1013
3622, 3118, 2142, 952, 1013, 3119, 2143, 953, 1014
3623, 3119, 2143, 953, 1014, 3120, 2144, 954, 1015
3624, 3120, 2144, 954, 1015, 3121, 2145, 955, 1016
3625, 3121, 2145, 955, 1016, 3122, 2146, 956, 1017
3626, 3122, 2146, 956, 1017, 3123, 2147, 957, 1018
3627, 3123, 2147, 957, 1018, 3124, 2148, 958, 1019
3628, 3124, 2148, 958, 1019, 3125, 2149, 959, 1020
3629, 3125, 2149, 959, 1020, 3126, 2150, 960, 1021
3630, 3126, 2150, 960, 1021, 3127, 2151, 961, 1022
3631, 3127, 2151, 961, 1022, 3128, 2152, 962, 1023
3632, 3128, 2152, 962, 1023, 3129, 2153, 963, 1024
3633, 3129, 2153, 963, 1024, 3130, 2154, 964, 1025
3634, 3130, 2154, 964, 1025, 3131, 2155, 965, 1026
3635, 3131, 2155, 965, 1026, 3132, 2156, 966, 1027
3636, 3132, 2156, 966, 1027, 3133, 2157, 967, 1028
3637, 3133, 2157, 967, 1028, 3134, 2158, 968, 1029
3638, 3134, 2158, 968, 1029, 3135, 2159, 969, 1030
3639, 3135, 2159, 969, 1030, 3136, 2160, 970, 1031
3640, 3136, 2160, 970, 1031, 3137, 2161, 971, 1032
3641, 3137, 2161, 971, 1032, 3138, 2162, 972, 1033
3642, 3138, 2162, 972, 1033, 3139, 2163, 973, 1034
3643, 3139, 2163, 973, 1034, 3140, 2164, 974, 1035
3644, 3140, 2164, 974, 1035, 3141, 2165, 975, 1036
3645, 3141, 2165, 975, 1036, 3142, 2166, 976, 1037
3646, 3142, 2166, 976, 1037, 3143, 2167, 977, 1038
3647, 3143, 2167, 977, 1038, 3144, 2168, 978, 1039
3648, 3144, 2168, 978, 1039, 3145, 2169, 979, 1040
3649, 3145, 2169, 979, 1040, 3146, 2170, 980, 1041
3650, 3146, 2170, 980, 1041, 3147, 2171, 981, 1042
3651, 3147, 2171, 981, 1042, 3148, 2172, 982, 1043
3652, 3148, 2172, 982, 1043, 3149, 2173, 983, 1044
3653, 3149, 2173, 983, 1044, 3150, 2174, 984, 1045
3654, 3150, 2174, 984, 1045, 3151, 2175, 985, 1046
3655, 3151, 2175, 985, 1046, 3152, 2176, 986, 1047
3656, 3152, 2176, 986, 1047, 1321, 1305, 96, 97
3657, 132, 7, 8, 9, 3153, 377, 438, 499
3658, 3153, 377, 438, 499, 3154, 378, 439, 500
3659, 3154, 378, 439, 500, 3155, 379, 440, 501
3660, 3155, 379, 440, 501, 3156, 380, 441, 502
3661, 3156, 380, 441, 502, 3157, 381, 442, 503
3662, 3157, 381, 442, 503, 3158, 382, 443, 504
3663, 3158, 382, 443, 504, 3159, 383, 444, 505
3664, 3159, 383, 444, 505, 3160, 384, 445, 506
3665, 3160, 384, 445, 506, 3161, 385, 446, 507
3666, 3161, 385, 446, 507, 3162, 386, 447, 508
3667, 3162, 386, 447, 508, 3163, 387, 448, 509
3668, 3163, 387, 448, 509, 3164, 388, 449, 510
3669, 3164, 388, 449, 510, 3165, 389, 450, 511
3670, 3165, 389, 450, 511, 3166, 390, 451, 512
3671, 3166, 390, 451, 512, 3167, 391, 452, 513
3672, 3167, 391, 452, 513, 3168, 392, 453, 514
3673, 3168, 392, 453, 514, 3169, 393, 454, 515
3674, 3169, 393, 454, 515, 3170, 394, 455, 516
3675, 3170, 394, 455, 516, 3171, 395, 456, 517
3676, 3171, 395, 456, 517, 3172, 396, 457, 518
3677, 3172, 396, 457, 518, 3173, 397, 458, 519
3678, 3173, 397, 458, 519, 3174, 398, 459, 520
3679, 3174, 398, 459, 520, 3175, 399, 460, 521
3680, 3175, 399, 460, 521, 3176, 400, 461, 522
3681, 3176, 400, 461, 522, 3177, 401, 462, 523
3682, 3177, 401, 462, 523, 3178, 402, 463, 524
3683, 3178, 402, 463, 524, 3179, 403, 464, 525
3684, 3179, 403, 464, 525, 3180, 404, 465, 526
3685, 3180, 404, 465, 526, 3181, 405, 466, 527
3686, 3181, 405, 466, 527, 3182, 406, 467, 528
3687, 3182, 406, 467, 528, 3183, 407, 468, 529
3688, 3183, 407, 468, 529, 3184, 408, 469, 530
3689, 3184, 408, 469, 530, 3185, 409, 470, 531
3690, 3185, 409, 470, 531, 3186, 410, 471, 532
3691, 3186, 410, 471, 532, 3187, 411, 472, 533
3692, 3187, 411, 472, 533, 3188, 412, 473, 534
3693, 3188, 412, 473, 534, 3189, 413, 474, 535
3694, 3189, 413, 474, 535, 3190, 414, 475, 536
3695, 3190, 414, 475, 536, 3191, 415, 476, 537
3696, 3191, 415, 476, 537, 3192, 416, 477, 538
3697, 3192, 416, 477, 538, 3193, 417, 478, 539
3698, 3193, 417, 478, 539, 3194, 418, 479, 540
3699, 3194, 418, 479, 540, 3195, 419, 480, 541
3700, 3195, 419, 480, 541, 3196, 420, 481, 542
3701, 3196, 420, 481, 542, 3197, 421, 482, 543
3702, 3197, 421, 482, 543, 3198, 422, 483, 544
3703, 3198, 422, 483, 544, 3199, 423, 484, 545
3704, 3199, 423, 484, 545, 3200, 424, 485, 546
3705, 3200, 424, 485, 546, 3201, 425, 486, 547
3706, 3201, 425, 486, 547, 3202, 426, 487, 548
3707, 3202, 426, 487, 548, 3203, 427, 488, 549
3708, 3203, 427, 488, 549, 3204, 428, 489, 550
3709, 3204, 428, 489, 550, 3205, 429, 490, 551
3710, 3205, 429, 490, 551, 3206, 430, 491, 552
3711, 3206, 430, 491, 552, 3207, 431, 492, 553
3712, 3207, 431, 492, 553, 3208, 432, 493, 554
3713, 3208, 432, 493, 554, 3209, 433, 494, 555
3714, 3209, 433, 494, 555, 3210, 434, 495, 556
3715, 3210, 434, 495, 556, 3211, 435, 496, 557
3716, 3211, 435, 496, 557, 3212, 436, 497, 558
3717, 3212, 436, 497, 558, 3213, 437, 498, 559
3718, 3213, 437, 498, 559, 1322, 87, 88, 89
3719, 132, 125, 6, 7, 3153, 2726, 316, 377
3720, 3153, 2726, 316, 377, 3154, 2727, 317, 378
3721, 3154, 2727, 317, 378, 3155, 2728, 318, 379
3722, 3155, 2728, 318, 379, 3156, 2729, 319, 380
3723, 3156, 2729, 319, 380, 3157, 2730, 320, 381
3724, 3157, 2730, 320, 381, 3158, 2731, 321, 382
3725, 3158, 2731, 321, 382, 3159, 2732, 322, 383
3726, 3159, 2732, 322, 383, 3160, 2733, 323, 384
3727, 3160, 2733, 323, 384, 3161, 2734, 324, 385
3728, 3161, 2734, 324, 385, 3162, 2735, 325, 386
3729, 3162, 2735, 325, 386, 3163, 2736, 326, 387
3730, 3163, 2736, 326, 387, 3164, 2737, 327, 388
3731, 3164, 2737, 327, 388, 3165, 2738, 328, 389
3732, 3165, 2738, 328, 389, 3166, 2739, 329, 390
3733, 3166, 2739, 329, 390, 3167, 2740, 330, 391
3734, 3167, 2740, 330, 391, 3168, 2741, 331, 392
3735, 3168, 2741, 331, 392, 3169, 2742, 332, 393
3736, 3169, 2742, 332, 393, 3170, 2743, 333, 394
3737, 3170, 2743, 333, 394, 3171, 2744, 334, 395
3738, 3171, 2744, 334, 395, 3172, 2745, 335, 396
3739, 3172, 2745, 335, 396, 3173, 2746, 336, 397
3740, 3173, 2746, 336, 397, 3174, 2747, 337, 398
3741, 3174, 2747, 337, 398, 3175, 2748, 338, 399
3742, 3175, 2748, 338, 399, 3176, 2749, 339, 400
3743, 3176, 2749, 339, 400, 3177, 2750, 340, 401
3744, 3177, 2750, 340, 401, 3178, 2751, 341, 402
3745, 3178, 2751, 341, 402, 3179, 2752, 342, 403
3746, 3179, 2752, 342, 403, 3180, 2753, 343, 404
3747, 3180, 2753, 343, 404, 3181, 2754, 344, 405
3748, 3181, 2754, 344, 405, 3182, 2755, 345, 406
3749, 3182, 2755, 345, 406, 3183, 2756, 346, 407
3750, 3183, 2756, 346, 407, 3184, 2757, 347, 408
3751, 3184, 2757, 347, 408, 3185, 2758, 348, 409
3752, 3185, 2758, 348, 409, 3186, 2759, 349, 410
3753, 3186, 2759, 349, 410, 3187, 2760, 350, 411
3754, 3187, 2760, 350, 411, 3188, 2761, 351, 412
3755, 3188, 2761, 351, 412, 3189, 2762, 352, 413
3756, 3189, 2762, 352, 413, 3190, 2763, 353, 414
3757, 3190, 2763, 353, 414, 3191, 2764, 354, 415
3758, 3191, 2764, 354, 415, 3192, 2765, 355, 416
3759, 3192, 2765, 355, 416, 3193, 2766, 356, 417
3760, 3193, 2766, 356, 417, 3194, 2767, 357, 418
3761, 3194, 2767, 357, 418, 3195, 2768, 358, 419
3762, 3195, 2768, 358, 419, 3196, 2769, 359, 420
3763, 3196, 2769, 359, 420, 3197, 2770, 360, 421
3764, 3197, 2770, 360, 421, 3198, 2771, 361, 422
3765, 3198, 2771, 361, 422, 3199, 2772, 362, 423
3766, 3199, 2772, 362, 423, 3200, 2773, 363, 424
3767, 3200, 2773, 363, 424, 3201, 2774, 364, 425
3768, 3201, 2774, 364, 425, 3202, 2775, 365, 426
3769, 3202, 2775, 365, 426, 3203, 2776, 366, 427
3770, 3203, 2776, 366, 427, 3204, 2777, 367, 428
3771, 3204, 2777, 367, 428, 3205, 2778, 368, 429
3772, 3205, 2778, 368, 429, 3206, 2779, 369, 430
3773, 3206, 2779, 369, 430, 3207, 2780, 370, 431
3774, 3207, 2780, 370, 431, 3208, 2781, 371, 432
3775, 3208, 2781, 371, 432, 3209, 2782, 372, 433
3776, 3209, 2782, 372, 433, 3210, 2783, 373, 434
3777, 3210, 2783, 373, 434, 3211, 2784, 374, 435
3778, 3211, 2784, 374, 435, 3212, 2785, 375, 436
3779, 3212, 2785, 375, 436, 3213, 2786, 376, 437
3780, 3213, 2786, 376, 437, 1322, 1315, 86, 87
3781, 132, 121, 105, 125, 3153, 2482, 1506, 2726
3782, 3153, 2482, 1506, 2726, 3154, 2483, 1507, 2727
3783, 3154, 2483, 1507, 2727, 3155, 2484, 1508, 2728
3784, 3155, 2484, 1508, 2728, 3156, 2485, 1509, 2729
3785, 3156, 2485, 1509, 2729, 3157, 2486, 1510, 2730
3786, 3157, 2486, 1510, 2730, 3158, 2487, 1511, 2731
3787, 3158, 2487, 1511, 2731, 3159, 2488, 1512, 2732
3788, 3159, 2488, 1512, 2732, 3160, 2489, 1513, 2733
3789, 3160, 2489, 1513, 2733, 3161, 2490, 1514, 2734
3790, 3161, 2490, 1514, 2734, 3162, 2491, 1515, 2735
3791, 3162, 2491, 1515, 2735, 3163, 2492, 1516, 2736
3792, 3163, 2492, 1516, 2736, 3164, 2493, 1517, 2737
3793, 3164, 2493, 1517, 2737, 3165, 2494, 1518, 2738
3794, 3165, 2494, 1518, 2738, 3166, 2495, 1519, 2739
3795, 3166, 2495, 1519, 2739, 3167, 2496, 1520, 2740
3796, 3167, 2496, 1520, 2740, 3168, 2497, 1521, 2741
3797, 3168, 2497, 1521, 2741, 3169, 2498, 1522, 2742
3798, 3169, 2498, 1522, 2742, 3170, 2499, 1523, 2743
3799, 3170, 2499, 1523, 2743, 3171, 2500, 1524, 2744
3800, 3171, 2500, 1524, 2744, 3172, 2501, 1525, 2745
3801, 3172, 2501, 1525, 2745, 3173, 2502, 1526, 2746
3802, 3173, 2502, 1526, 2746, 3174, 2503, 1527, 2747
3803, 3174, 2503, 1527, 2747, 3175, 2504, 1528, 2748
3804, 3175, 2504, 1528, 2748, 3176, 2505, 1529, 2749
3805, 3176, 2505, 1529, 2749, 3177, 2506, 1530, 2750
3806, 3177, 2506, 1530, 2750, 3178, 2507, 1531, 2751
3807, 3178, 2507, 1531, 2751, 3179, 2508, 1532, 2752
3808, 3179, 2508, 1532, 2752, 3180, 2509, 1533, 2753
3809, 3180, 2509, 1533, 2753, 3181, 2510, 1534, 2754
3810, 3181, 2510, 1534, 2754, 3182, 2511, 1535, 2755
3811, 3182, 2511, 1535, 2755, 3183, 2512, 1536, 2756
3812, 3183, 2512, 1536, 2756, 3184, 2513, 1537, 2757
3813, 3184, 2513, 1537, 2757, 3185, 2514, 1538, 2758
3814, 3185, 2514, 1538, 2758, 3186, 2515, 1539, 2759
3815, 3186, 2515, 1539, 2759, 3187, 2516, 1540, 2760
3816, 3187, 2516, 1540, 2760, 3188, 2517, 1541, 2761
3817, 3188, 2517, 1541, 2761, 3189, 2518, 1542, 2762
3818, 3189, 2518, 1542, 2762, 3190, 2519, 1543, 2763
3819, 3190, 2519, 1543, 2763, 3191, 2520, 1544, 2764
3820, 3191, 2520, 1544, 2764, 3192, 2521, 1545, 2765
3821, 3192, 2521, 1545, 2765, 3193, 2522, 1546, 2766
3822, 3193, 2522, 1546, 2766, 3194, 2523, 1547, 2767
3823, 3194, 2523, 1547, 2767, 3195, 2524, 1548, 2768
3824, 3195, 2524, 1548, 2768, 3196, 2525, 1549, 2769
3825, 3196, 2525, 1549, 2769, 3197, 2526, 1550, 2770
3826, 3197, 2526, 1550, 2770, 3198, 2527, 1551, 2771
3827, 3198, 2527, 1551, 2771, 3199, 2528, 1552, 2772
3828, 3199, 2528, 1552, 2772, 3200, 2529, 1553, 2773
3829, 3200, 2529, 1553, 2773, 3201, 2530, 1554, 2774
3830, 3201, 2530, 1554, 2774, 3202, 2531, 1555, 2775
3831, 3202, 2531, 1555, 2775, 3203, 2532, 1556, 2776
3832, 3203, 2532, 1556, 2776, 3204, 2533, 1557, 2777
3833, 3204, 2533, 1557, 2777, 3205, 2534, 1558, 2778
3834, 3205, 2534, 1558, 2778, 3206, 2535, 1559, 2779
3835, 3206, 2535, 1559, 2779, 3207, 2536, 1560, 2780
3836, 3207, 2536, 1560, 2780, 3208, 2537, 1561, 2781
3837, 3208, 2537, 1561, 2781, 3209, 2538, 1562, 2782
3838, 3209, 2538, 1562, 2782, 3210, 2539, 1563, 2783
3839, 3210, 2539, 1563, 2783, 3211, 2540, 1564, 2784
3840, 3211, 2540, 1564, 2784, 3212, 2541, 1565, 2785
3841, 3212, 2541, 1565, 2785, 3213, 2542, 1566, 2786
3842, 3213, 2542, 1566, 2786, 1322, 1311, 1295, 1315
3843, 132, 9, 10, 121, 3153, 499, 560, 2482
3844, 3153, 499, 560, 2482, 3154, 500, 561, 2483
3845, 3154, 500, 561, 2483, 3155, 501, 562, 2484
3846, 3155, 501, 562, 2484, 3156, 502, 563, 2485
3847, 3156, 502, 563, 2485, 3157, 503, 564, 2486
3848, 3157, 503, 564, 2486, 3158, 504, 565, 2487
3849, 3158, 504, 565, 2487, 3159, 505, 566, 2488
3850, 3159, 505, 566, 2488, 3160, 506, 567, 2489
3851, 3160, 506, 567, 2489, 3161, 507, 568, 2490
3852, 3161, 507, 568, 2490, 3162, 508, 569, 2491
3853, 3162, 508, 569, 2491, 3163, 509, 570, 2492
3854, 3163, 509, 570, 2492, 3164, 510, 571, 2493
3855, 3164, 510, 571, 2493, 3165, 511, 572, 2494
3856, 3165, 511, 572, 2494, 3166, 512, 573, 2495
3857, 3166, 512, 573, 2495, 3167, 513, 574, 2496
3858, 3167, 513, 574, 2496, 3168, 514, 575, 2497
3859, 3168, 514, 575, 2497, 3169, 515, 576, 2498
3860, 3169, 515, 576, 2498, 3170, 516, 577, 2499
3861, 3170, 516, 577, 2499, 3171, 517, 578, 2500
3862, 3171, 517, 578, 2500, 3172, 518, 579, 2501
3863, 3172, 518, 579, 2501, 3173, 519, 580, 2502
3864, 3173, 519, 580, 2502, 3174, 520, 581, 2503
3865, 3174, 520, 581, 2503, 3175, 521, 582, 2504
3866, 3175, 521, 582, 2504, 3176, 522, 583, 2505
3867, 3176, 522, 583, 2505, 3177, 523, 584, 2506
3868, 3177, 523, 584, 2506, 3178, 524, 585, 2507
3869, 3178, 524, 585, 2507, 3179, 525, 586, 2508
3870, 3179, 525, 586, 2508, 3180, 526, 587, 2509
3871, 3180, 526, 587, 2509, 3181, 527, 588, 2510
3872, 3181, 527, 588, 2510, 3182, 528, 589, 2511
3873, 3182, 528, 589, 2511, 3183, 529, 590, 2512
3874, 3183, 529, 590, 2512, 3184, 530, 591, 2513
3875, 3184, 530, 591, 2513, 3185, 531, 592, 2514
3876, 3185, 531, 592, 2514, 3186, 532, 593, 2515
3877, 3186, 532, 593, 2515, 3187, 533, 594, 2516
3878, 3187, 533, 594, 2516, 3188, 534, 595, 2517
3879, 3188, 534, 595, 2517, 3189, 535, 596, 2518
3880, 3189, 535, 596, 2518, 3190, 536, 597, 2519
3881, 3190, 536, 597, 2519, 3191, 537, 598, 2520
3882, 3191, 537, 598, 2520, 3192, 538, 599, 2521
3883, 3192, 538, 599, 2521, 3193, 539, 600, 2522
3884, 3193, 539, 600, 2522, 3194, 540, 601, 2523
3885, 3194, 540, 601, 2523, 3195, 541, 602, 2524
3886, 3195, 541, 602, 2524, 3196, 542, 603, 2525
3887, 3196, 542, 603, 2525, 3197, 543, 604, 2526
3888, 3197, 543, 604, 2526, 3198, 544, 605, 2527
3889, 3198, 544, 605, 2527, 3199, 545, 606, 2528
3890, 3199, 545, 606, 2528, 3200, 546, 607, 2529
3891, 3200, 546, 607, 2529, 3201, 547, 608, 2530
3892, 3201, 547, 608, 2530, 3202, 548, 609, 2531
3893, 3202, 548, 609, 2531, 3203, 549, 610, 2532
3894, 3203, 549, 610, 2532, 3204, 550, 611, 2533
3895, 3204, 550, 611, 2533, 3205, 551, 612, 2534
3896, 3205, 551, 612, 2534, 3206, 552, 613, 2535
3897, 3206, 552, 613, 2535, 3207, 553, 614, 2536
3898, 3207, 553, 614, 2536, 3208, 554, 615, 2537
3899, 3208, 554, 615, 2537, 3209, 555, 616, 2538
3900, 3209, 555, 616, 2538, 3210, 556, 617, 2539
3901, 3210, 556, 617, 2539, 3211, 557, 618, 2540
3902, 3211, 557, 618, 2540, 3212, 558, 619, 2541
3903, 3212, 558, 619, 2541, 3213, 559, 620, 2542
3904, 3213, 559, 620, 2542, 1322, 89, 90, 1311
*ELSET,ELSET=Volume
1425, 1426, 1427, 1428, 1429, 1430, 1431, 1432, 1433, 1434, 
1435, 1436, 1437, 1438, 1439, 1440, 1441, 1442, 1443, 1444, 
1445, 1446, 1447, 1448, 1449, 1450, 1451, 1452, 1453, 1454, 
1455, 1456, 1457, 1458, 1459, 1460, 1461, 1462, 1463, 1464, 
1465, 1466, 1467, 1468, 1469, 1470, 1471, 1472, 1473, 1474, 
1475, 1476, 1477, 1478, 1479, 1480, 1481, 1482, 1483, 1484, 
1485, 1486, 1487, 1488, 1489, 1490, 1491, 1492, 1493, 1494, 
1495, 1496, 1497, 1498, 1499, 1500, 1501, 1502, 1503, 1504, 
1505, 1506, 1507, 1508, 1509, 1510, 1511, 1512, 1513, 1514, 
1515, 1516, 1517, 1518, 1519, 1520, 1521, 1522, 1523, 1524, 
1525, 1526, 1527, 1528, 1529, 1530, 1531, 1532, 1533, 1534, 
1535, 1536, 1537, 1538, 1539, 1540, 1541, 1542, 1543, 1544, 
1545, 1546, 1547, 1548, 1549, 1550, 1551, 1552, 1553, 1554, 
1555, 1556, 1557, 1558, 1559, 1560, 1561, 1562, 1563, 1564, 
1565, 1566, 1567, 1568, 1569, 1570, 1571, 1572, 1573, 1574, 
1575, 1576, 1577, 1578, 1579, 1580, 1581, 1582, 1583, 1584, 
1585, 1586, 1587, 1588, 1589, 1590, 1591, 1592, 1593, 1594, 
1595, 1596, 1597, 1598, 1599, 1600, 1601, 1602, 1603, 1604, 
1605, 1606, 1607, 1608, 1609, 1610, 1611, 1612, 1613, 1614, 
1615, 1616, 1617, 1618, 1619, 1620, 1621, 1622, 1623, 1624, 
1625, 1626, 1627, 1628, 1629, 1630, 1631, 1632, 1633, 1634, 
1635, 1636, 1637, 1638, 1639, 1640, 1641, 1642, 1643, 1644, 
1645, 1646, 1647, 1648, 1649, 1650, 1651, 1652, 1653, 1654, 
1655, 1656, 1657, 1658, 1659, 1660, 1661, 1662, 1663, 1664, 
1665, 1666, 1667, 1668, 1669, 1670, 1671, 1672, 1673, 1674, 
1675, 1676, 1677, 1678, 1679, 1680, 1681, 1682, 1683, 1684, 
1685, 1686, 1687, 1688, 1689, 1690, 1691, 1692, 1693, 1694, 
1695, 1696, 1697, 1698, 1699, 1700, 1701, 1702, 1703, 1704, 
1705, 1706, 1707, 1708, 1709, 1710, 1711, 1712, 1713, 1714, 
1715, 1716, 1717, 1718, 1719, 1720, 1721, 1722, 1723, 1724, 
1725, 1726, 1727, 1728, 1729, 1730, 1731, 1732, 1733, 1734, 
1735, 1736, 1737, 1738, 1739, 1740, 1741, 1742, 1743, 1744, 
1745, 1746, 1747, 1748, 1749, 1750, 1751, 1752, 1753, 1754, 
1755, 1756, 1757, 1758, 1759, 1760, 1761, 1762, 1763, 1764, 
1765, 1766, 1767, 1768, 1769, 1770, 1771, 1772, 1773, 1774, 
1775, 1776, 1777, 1778, 1779, 1780, 1781, 1782, 1783, 1784, 
1785, 1786, 1787, 1788, 1789, 1790, 1791, 1792, 1793, 1794, 
1795, 1796, 1797, 1798, 1799, 1800, 1801, 1802, 1803, 1804, 
1805, 1806, 1807, 1808, 1809, 1810, 1811, 1812, 1813, 1814, 
1815, 1816, 1817, 1818, 1819, 1820, 1821, 1822, 1823, 1824, 
1825, 1826, 1827, 1828, 1829, 1830, 1831, 1832, 1833, 1834, 
1835, 1836, 1837, 1838, 1839, 1840, 1841, 1842, 1843, 1844, 
1845, 1846, 1847, 1848, 1849, 1850, 1851, 1852, 1853, 1854, 
1855, 1856, 1857, 1858, 1859, 1860, 1861, 1862, 1863, 1864, 
1865, 1866, 1867, 1868, 1869, 1870, 1871, 1872, 1873, 1874, 
1875, 1876, 1877, 1878, 1879, 1880, 1881, 1882, 1883, 1884, 
1885, 1886, 1887, 1888, 1889, 1890, 1891, 1892, 1893, 1894, 
1895, 1896, 1897, 1898, 1899, 1900, 1901, 1902, 1903, 1904, 
1905, 1906, 1907, 1908, 1909, 1910, 1911, 1912, 1913, 1914, 
1915, 1916, 1917, 1918, 1919, 1920, 1921, 1922, 1923, 1924, 
1925, 1926, 1927, 1928, 1929, 1930, 1931, 1932, 1933, 1934, 
1935, 1936, 1937, 1938, 1939, 1940, 1941, 1942, 1943, 1944, 
1945, 1946, 1947, 1948, 1949, 1950, 1951, 1952, 1953, 1954, 
1955, 1956, 1957, 1958, 1959, 1960, 1961, 1962, 1963, 1964, 
1965, 1966, 1967, 1968, 1969, 1970, 1971, 1972, 1973, 1974, 
1975, 1976, 1977, 1978, 1979, 1980, 1981, 1982, 1983, 1984, 
1985, 1986, 1987, 1988, 1989, 1990, 1991, 1992, 1993, 1994, 
1995, 1996, 1997, 1998, 1999, 2000, 2001, 2002, 2003, 2004, 
2005, 2006, 2007, 2008, 2009, 2010, 2011, 2012, 2013, 2014, 
2015, 2016, 2017, 2018, 2019, 2020, 2021, 2022, 2023, 2024, 
2025, 2026, 2027, 2028, 2029, 2030, 2031, 2032, 2033, 2034, 
2035, 2036, 2037, 2038, 2039, 2040, 2041, 2042, 2043, 2044, 
2045, 2046, 2047, 2048, 2049, 2050, 2051, 2052, 2053, 2054, 
2055, 2056, 2057, 2058, 2059, 2060, 2061, 2062, 2063, 2064, 
2065, 2066, 2067, 2068, 2069, 2070, 2071, 2072, 2073, 2074, 
2075, 2076, 2077, 2078, 2079, 2080, 2081, 2082, 2083, 2084, 
2085, 2086, 2087, 2088, 2089, 2090, 2091, 2092, 2093, 2094, 
2095, 2096, 2097, 2098, 2099, 2100, 2101, 2102, 2103, 2104, 
2105, 2106, 2107, 2108, 2109, 2110, 2111, 2112, 2113, 2114, 
2115, 2116, 2117, 2118, 2119, 2120, 2121, 2122, 2123, 2124, 
2125, 2126, 2127, 2128, 2129, 2130, 2131, 2132, 2133, 2134, 
2135, 2136, 2137, 2138, 2139, 2140, 2141, 2142, 2143, 2144, 
2145, 2146, 2147, 2148, 2149, 2150, 2151, 2152, 2153, 2154, 
2155, 2156, 2157, 2158, 2159, 2160, 2161, 2162, 2163, 2164, 
2165, 2166, 2167, 2168, 2169, 2170, 2171, 2172, 2173, 2174, 
2175, 2176, 2177, 2178, 2179, 2180, 2181, 2182, 2183, 2184, 
2185, 2186, 2187, 2188, 2189, 2190, 2191, 2192, 2193, 2194, 
2195, 2196, 2197, 2198, 2199, 2200, 2201, 2202, 2203, 2204, 
2205, 2206, 2207, 2208, 2209, 2210, 2211, 2212, 2213, 2214, 
2215, 2216, 2217, 2218, 2219, 2220, 2221, 2222, 2223, 2224, 
2225, 2226, 2227, 2228, 2229, 2230, 2231, 2232, 2233, 2234, 
2235, 2236, 2237, 2238, 2239, 2240, 2241, 2242, 2243, 2244, 
2245, 2246, 2247, 2248, 2249, 2250, 2251, 2252, 2253, 2254, 
2255, 2256, 2257, 2258, 2259, 2260, 2261, 2262, 2263, 2264, 
2265, 2266, 2267, 2268, 2269, 2270, 2271, 2272, 2273, 2274, 
2275, 2276, 2277, 2278, 2279, 2280, 2281, 2282, 2283, 2284, 
2285, 2286, 2287, 2288, 2289, 2290, 2291, 2292, 2293, 2294, 
2295, 2296, 2297, 2298, 2299, 2300, 2301, 2302, 2303, 2304, 
2305, 2306, 2307, 2308, 2309, 2310, 2311, 2312, 2313, 2314, 
2315, 2316, 2317, 2318, 2319, 2320, 2321, 2322, 2323, 2324, 
2325, 2326, 2327, 2328, 2329, 2330, 2331, 2332, 2333, 2334, 
2335, 2336, 2337, 2338, 2339, 2340, 2341, 2342, 2343, 2344, 
2345, 2346, 2347, 2348, 2349, 2350, 2351, 2352, 2353, 2354, 
2355, 2356, 2357, 2358, 2359, 2360, 2361, 2362, 2363, 2364, 
2365, 2366, 2367, 2368, 2369, 2370, 2371, 2372, 2373, 2374, 
2375, 2376, 2377, 2378, 2379, 2380, 2381, 2382, 2383, 2384, 
2385, 2386, 2387, 2388, 2389, 2390, 2391, 2392, 2393, 2394, 
2395, 2396, 2397, 2398, 2399, 2400, 2401, 2402, 2403, 2404, 
2405, 2406, 2407, 2408, 2409, 2410, 2411, 2412, 2413, 2414, 
2415, 2416, 2417, 2418, 2419, 2420, 2421, 2422, 2423, 2424, 
2425, 2426, 2427, 2428, 2429, 2430, 2431, 2432, 2433, 2434, 
2435, 2436, 2437, 2438, 2439, 2440, 2441, 2442, 2443, 2444, 
2445, 2446, 2447, 2448, 2449, 2450, 2451, 2452, 2453, 2454, 
2455, 2456, 2457, 2458, 2459, 2460, 2461, 2462, 2463, 2464, 
2465, 2466, 2467, 2468, 2469, 2470, 2471, 2472, 2473, 2474, 
2475, 2476, 2477, 2478, 2479, 2480, 2481, 2482, 2483, 2484, 
2485, 2486, 2487, 2488, 2489, 2490, 2491, 2492, 2493, 2494, 
2495, 2496, 2497, 2498, 2499, 2500, 2501, 2502, 2503, 2504, 
2505, 2506, 2507, 2508, 2509, 2510, 2511, 2512, 2513, 2514, 
2515, 2516, 2517, 2518, 2519, 2520, 2521, 2522, 2523, 2524, 
2525, 2526, 2527, 2528, 2529, 2530, 2531, 2532, 2533, 2534, 
2535, 2536, 2537, 2538, 2539, 2540, 2541, 2542, 2543, 2544, 
2545, 2546, 2547, 2548, 2549, 2550, 2551, 2552, 2553, 2554, 
2555, 2556, 2557, 2558, 2559, 2560, 2561, 2562, 2563, 2564, 
2565, 2566, 2567, 2568, 2569, 2570, 2571, 2572, 2573, 2574, 
2575, 2576, 2577, 2578, 2579, 2580, 2581, 2582, 2583, 2584, 
2585, 2586, 2587, 2588, 2589, 2590, 2591, 2592, 2593, 2594, 
2595, 2596, 2597, 2598, 2599, 2600, 2601, 2602, 2603, 2604, 
2605, 2606, 2607, 2608, 2609, 2610, 2611, 2612, 2613, 2614, 
2615, 2616, 2617, 2618, 2619, 2620, 2621, 2622, 2623, 2624, 
2625, 2626, 2627, 2628, 2629, 2630, 2631, 2632, 2633, 2634, 
2635, 2636, 2637, 2638, 2639, 2640, 2641, 2642, 2643, 2644, 
2645, 2646, 2647, 2648, 2649, 2650, 2651, 2652, 2653, 2654, 
2655, 2656, 2657, 2658, 2659, 2660, 2661, 2662, 2663, 2664, 
2665, 2666, 2667, 2668, 2669, 2670, 2671, 2672, 2673, 2674, 
2675, 2676, 2677, 2678, 2679, 2680, 2681, 2682, 2683, 2684, 
2685, 2686, 2687, 2688, 2689, 2690, 2691, 2692, 2693, 2694, 
2695, 2696, 2697, 2698, 2699, 2700, 2701, 2702, 2703, 2704, 
2705, 2706, 2707, 2708, 2709, 2710, 2711, 2712, 2713, 2714, 
2715, 2716, 2717, 2718, 2719, 2720, 2721, 2722, 2723, 2724, 
2725, 2726, 2727, 2728, 2729, 2730, 2731, 2732, 2733, 2734, 
2735, 2736, 2737, 2738, 2739, 2740, 2741, 2742, 2743, 2744, 
2745, 2746, 2747, 2748, 2749, 2750, 2751, 2752, 2753, 2754, 
2755, 2756, 2757, 2758, 2759, 2760, 2761, 2762, 2763, 2764, 
2765, 2766, 2767, 2768, 2769, 2770, 2771, 2772, 2773, 2774, 
2775, 2776, 2777, 2778, 2779, 2780, 2781, 2782, 2783, 2784, 
2785, 2786, 2787, 2788, 2789, 2790, 2791, 2792, 2793, 2794, 
2795, 2796, 2797, 2798, 2799, 2800, 2801, 2802, 2803, 2804, 
2805, 2806, 2807, 2808, 2809, 2810, 2811, 2812, 2813, 2814, 
2815, 2816, 2817, 2818, 2819, 2820, 2821, 2822, 2823, 2824, 
2825, 2826, 2827, 2828, 2829, 2830, 2831, 2832, 2833, 2834, 
2835, 2836, 2837, 2838, 2839, 2840, 2841, 2842, 2843, 2844, 
2845, 2846, 2847, 2848, 2849, 2850, 2851, 2852, 2853, 2854, 
2855, 2856, 2857, 2858, 2859, 2860, 2861, 2862, 2863, 2864, 
2865, 2866, 2867, 2868, 2869, 2870, 2871, 2872, 2873, 2874, 
2875, 2876, 2877, 2878, 2879, 2880, 2881, 2882, 2883, 2884, 
2885, 2886, 2887, 2888, 2889, 2890, 2891, 2892, 2893, 2894, 
2895, 2896, 2897, 2898, 2899, 2900, 2901, 2902, 2903, 2904, 
2905, 2906, 2907, 2908, 2909, 2910, 2911, 2912, 2913, 2914, 
2915, 2916, 2917, 2918, 2919, 2920, 2921, 2922, 2923, 2924, 
2925, 2926, 2927, 2928, 2929, 2930, 2931, 2932, 2933, 2934, 
2935, 2936, 2937, 2938, 2939, 2940, 2941, 2942, 2943, 2944, 
2945, 2946, 2947, 2948, 2949, 2950, 2951, 2952, 2953, 2954, 
2955, 2956, 2957, 2958, 2959, 2960, 2961, 2962, 2963, 2964, 
2965, 2966, 2967, 2968, 2969, 2970, 2971, 2972, 2973, 2974, 
2975, 2976, 2977, 2978, 2979, 2980, 2981, 2982, 2983, 2984, 
2985, 2986, 2987, 2988, 2989, 2990, 2991, 2992, 2993, 2994, 
2995, 2996, 2997, 2998, 2999, 3000, 3001, 3002, 3003, 3004, 
3005, 3006, 3007, 3008, 3009, 3010, 3011, 3012, 3013, 3014, 
3015, 3016, 3017, 3018, 3019, 3020, 3021, 3022, 3023, 3024, 
3025, 3026, 3027, 3028, 3029, 3030, 3031, 3032, 3033, 3034, 
3035, 3036, 3037, 3038, 3039, 3040, 3041, 3042, 3043, 3044, 
3045, 3046, 3047, 3048, 3049, 3050, 3051, 3052, 3053, 3054, 
3055, 3056, 3057, 3058, 3059, 3060, 3061, 3062, 3063, 3064, 
3065, 3066, 3067, 3068, 3069, 3070, 3071, 3072, 3073, 3074, 
3075, 3076, 3077, 3078, 3079, 3080, 3081, 3082, 3083, 3084, 
3085, 3086, 3087, 3088, 3089, 3090, 3091, 3092, 3093, 3094, 
3095, 3096, 3097, 3098, 3099, 3100, 3101, 3102, 3103, 3104, 
3105, 3106, 3107, 3108, 3109, 3110, 3111, 3112, 3113, 3114, 
3115, 3116, 3117, 3118, 3119, 3120, 3121, 3122, 3123, 3124, 
3125, 3126, 3127, 3128, 3129, 3130, 3131, 3132, 3133, 3134, 
3135, 3136, 3137, 3138, 3139, 3140, 3141, 3142, 3143, 3144, 
3145, 3146, 3147, 3148, 3149, 3150, 3151, 3152, 3153, 3154, 
3155, 3156, 3157, 3158, 3159, 3160, 3161, 3162, 3163, 3164, 
3165, 3166, 3167, 3168, 3169, 3170, 3171, 3172, 3173, 3174, 
3175, 3176, 3177, 3178, 3179, 3180, 3181, 3182, 3183, 3184, 
3185, 3186, 3187, 3188, 3189, 3190, 3191, 3192, 3193, 3194, 
3195, 3196, 3197, 3198, 3199, 3200, 3201, 3202, 3203, 3204, 
3205, 3206, 3207, 3208, 3209, 3210, 3211, 3212, 3213, 3214, 
3215, 3216, 3217, 3218, 3219, 3220, 3221, 3222, 3223, 3224, 
3225, 3226, 3227, 3228, 3229, 3230, 3231, 3232, 3233, 3234, 
3235, 3236, 3237, 3238, 3239, 3240, 3241, 3242, 3243, 3244, 
3245, 3246, 3247, 3248, 3249, 3250, 3251, 3252, 3253, 3254, 
3255, 3256, 3257, 3258, 3259, 3260, 3261, 3262, 3263, 3264, 
3265, 3266, 3267, 3268, 3269, 3270, 3271, 3272, 3273, 3274, 
3275, 3276, 3277, 3278, 3279, 3280, 3281, 3282, 3283, 3284, 
3285, 3286, 3287, 3288, 3289, 3290, 3291, 3292, 3293, 3294, 
3295, 3296, 3297, 3298, 3299, 3300, 3301, 3302, 3303, 3304, 
3305, 3306, 3307, 3308, 3309, 3310, 3311, 3312, 3313, 3314, 
3315, 3316, 3317, 3318, 3319, 3320, 3321, 3322, 3323, 3324, 
3325, 3326, 3327, 3328, 3329, 3330, 3331, 3332, 3333, 3334, 
3335, 3336, 3337, 3338, 3339, 3340, 3341, 3342, 3343, 3344, 
3345, 3346, 3347, 3348, 3349, 3350, 3351, 3352, 3353, 3354, 
3355, 3356, 3357, 3358, 3359, 3360, 3361, 3362, 3363, 3364, 
3365, 3366, 3367, 3368, 3369, 3370, 3371, 3372, 3373, 3374, 
3375, 3376, 3377, 3378, 3379, 3380, 3381, 3382, 3383, 3384, 
3385, 3386, 3387, 3388, 3389, 3390, 3391, 3392, 3393, 3394, 
3395, 3396, 3397, 3398, 3399, 3400, 3401, 3402, 3403, 3404, 
3405, 3406, 3407, 3408, 3409, 3410, 3411, 3412, 3413, 3414, 
3415, 3416, 3417, 3418, 3419, 3420, 3421, 3422, 3423, 3424, 
3425, 3426, 3427, 3428, 3429, 3430, 3431, 3432, 3433, 3434, 
3435, 3436, 3437, 3438, 3439, 3440, 3441, 3442, 3443, 3444, 
3445, 3446, 3447, 3448, 3449, 3450, 3451, 3452, 3453, 3454, 
3455, 3456, 3457, 3458, 3459, 3460, 3461, 3462, 3463, 3464, 
3465, 3466, 3467, 3468, 3469, 3470, 3471, 3472, 3473, 3474, 
3475, 3476, 3477, 3478, 3479, 3480, 3481, 3482, 3483, 3484, 
3485, 3486, 3487, 3488, 3489, 3490, 3491, 3492, 3493, 3494, 
3495, 3496, 3497, 3498, 3499, 3500, 3501, 3502, 3503, 3504, 
3505, 3506, 3507, 3508, 3509, 3510, 3511, 3512, 3513, 3514, 
3515, 3516, 3517, 3518, 3519, 3520, 3521, 3522, 3523, 3524, 
3525, 3526, 3527, 3528, 3529, 3530, 3531, 3532, 3533, 3534, 
3535, 3536, 3537, 3538, 3539, 3540, 3541, 3542, 3543, 3544, 
3545, 3546, 3547, 3548, 3549, 3550, 3551, 3552, 3553, 3554, 
3555, 3556, 3557, 3558, 3559, 3560, 3561, 3562, 3563, 3564, 
3565, 3566, 3567, 3568, 3569, 3570, 3571, 3572, 3573, 3574, 
3575, 3576, 3577, 3578, 3579, 3580, 3581, 3582, 3583, 3584, 
3585, 3586, 3587, 3588, 3589, 3590, 3591, 3592, 3593, 3594, 
3595, 3596, 3597, 3598, 3599, 3600, 3601, 3602, 3603, 3604, 
3605, 3606, 3607, 3608, 3609, 3610, 3611, 3612, 3613, 3614, 
3615, 3616, 3617, 3618, 3619, 3620, 3621, 3622, 3623, 3624, 
3625, 3626, 3627, 3628, 3629, 3630, 3631, 3632, 3633, 3634, 
3635, 3636, 3637, 3638, 3639, 3640, 3641, 3642, 3643, 3644, 
3645, 3646, 3647, 3648, 3649, 3650, 3651, 3652, 3653, 3654, 
3655, 3656, 3657, 3658, 3659, 3660, 3661, 3662, 3663, 3664, 
3665, 3666, 3667, 3668, 3669, 3670, 3671, 3672, 3673, 3674, 
3675, 3676, 3677, 3678, 3679, 3680, 3681, 3682, 3683, 3684, 
3685, 3686, 3687, 3688, 3689, 3690, 3691, 3692, 3693, 3694, 
3695, 3696, 3697, 3698, 3699, 3700, 3701, 3702, 3703, 3704, 
3705, 3706, 3707, 3708, 3709, 3710, 3711, 3712, 3713, 3714, 
3715, 3716, 3717, 3718, 3719, 3720, 3721, 3722, 3723, 3724, 
3725, 3726, 3727, 3728, 3729, 3730, 3731, 3732, 3733, 3734, 
3735, 3736, 3737, 3738, 3739, 3740, 3741, 3742, 3743, 3744, 
3745, 3746, 3747, 3748, 3749, 3750, 3751, 3752, 3753, 3754, 
3755, 3756, 3757, 3758, 3759, 3760, 3761, 3762, 3763, 3764, 
3765, 3766, 3767, 3768, 3769, 3770, 3771, 3772, 3773, 3774, 
3775, 3776, 3777, 3778, 3779, 3780, 3781, 3782, 3783, 3784, 
3785, 3786, 3787, 3788, 3789, 3790, 3791, 3792, 3793, 3794, 
3795, 3796, 3797, 3798, 3799, 3800, 3801, 3802, 3803, 3804, 
3805, 3806, 3807, 3808, 3809, 3810, 3811, 3812, 3813, 3814, 
3815, 3816, 3817, 3818, 3819, 3820, 3821, 3822, 3823, 3824, 
3825, 3826, 3827, 3828, 3829, 3830, 3831, 3832, 3833, 3834, 
3835, 3836, 3837, 3838, 3839, 3840, 3841, 3842, 3843, 3844, 
3845, 3846, 3847, 3848, 3849, 3850, 3851, 3852, 3853, 3854, 
3855, 3856, 3857, 3858, 3859, 3860, 3861, 3862, 3863, 3864, 
3865, 3866, 3867, 3868, 3869, 3870, 3871, 3872, 3873, 3874, 
3875, 3876, 3877, 3878, 3879, 3880, 3881, 3882, 3883, 3884, 
3885, 3886, 3887, 3888, 3889, 3890, 3891, 3892, 3893, 3894, 
3895, 3896, 3897, 3898, 3899, 3900, 3901, 3902, 3903, 3904, 
